    NODE   SXX         SYY         SZZ         SXY         SYZ         SZX  
       1   0.15710E+002  -0.66614E+001   0.25250E+001   0.32178E+000   0.17059E+001  -0.32800E+000
       2   0.23413E+002  -0.10809E+002   0.50931E+001   0.76002E+000   0.34760E-002   0.25210E+001
       3   0.31117E+002  -0.14957E+002   0.76612E+001   0.11983E+001   0.31636E-009  -0.41303E-009
       4   0.23413E+002  -0.10809E+002   0.50931E+001   0.76002E+000  -0.34760E-002  -0.25210E+001
       5   0.15710E+002  -0.66614E+001   0.25250E+001   0.32178E+000  -0.17059E+001   0.32800E+000
       6   0.10979E+002  -0.20134E+002   0.11319E+001  -0.29341E+001   0.37651E+000  -0.58019E+000
       7   0.19512E+002  -0.22641E+002   0.45382E+001  -0.31334E+001   0.15075E+000   0.13910E+001
       8   0.28046E+002  -0.25147E+002   0.79446E+001  -0.33328E+001   0.53515E-010   0.11864E-009
       9   0.19512E+002  -0.22641E+002   0.45382E+001  -0.31334E+001  -0.15075E+000  -0.13910E+001
      10   0.10979E+002  -0.20134E+002   0.11319E+001  -0.29341E+001  -0.37651E+000   0.58019E+000
      11   0.26579E+001  -0.45866E+002   0.11299E+001  -0.23907E+001  -0.26301E+001  -0.15736E+001
      12   0.11809E+002  -0.43690E+002   0.39462E+001  -0.33467E+001  -0.15944E+001  -0.30180E+000
      13   0.20960E+002  -0.41514E+002   0.67625E+001  -0.43027E+001  -0.29274E-009   0.92756E-009
      14   0.11809E+002  -0.43690E+002   0.39462E+001  -0.33467E+001   0.15944E+001   0.30180E+000
      15   0.26579E+001  -0.45866E+002   0.11299E+001  -0.23907E+001   0.26301E+001   0.15736E+001
      16   0.25152E+001  -0.62799E+002   0.37461E+001   0.33930E+001  -0.37497E+001  -0.25818E+001
      17   0.11015E+002  -0.58763E+002   0.68508E+001   0.25850E+001  -0.35920E+001  -0.97281E+000
      18   0.19515E+002  -0.54728E+002   0.99555E+001   0.17770E+001  -0.24543E-009   0.78191E-009
      19   0.11015E+002  -0.58763E+002   0.68508E+001   0.25850E+001   0.35920E+001   0.97281E+000
      20   0.25152E+001  -0.62799E+002   0.37461E+001   0.33930E+001   0.37497E+001   0.25818E+001
      21   0.59629E+001  -0.67473E+002   0.49712E+001   0.76288E-009  -0.66959E-009  -0.28487E+001
      22   0.14023E+002  -0.64619E+002   0.97926E+001   0.51817E-009  -0.31265E-009  -0.10811E+001
      23   0.22084E+002  -0.61764E+002   0.14614E+002   0.14145E-009  -0.64468E-011   0.10752E-009
      24   0.14023E+002  -0.64619E+002   0.97926E+001  -0.23028E-009   0.30610E-010   0.10811E+001
      25   0.59629E+001  -0.67473E+002   0.49712E+001  -0.47000E-009   0.11840E-009   0.28487E+001
      26   0.25152E+001  -0.62799E+002   0.37461E+001  -0.33930E+001   0.37497E+001  -0.25818E+001
      27   0.11015E+002  -0.58763E+002   0.68508E+001  -0.25850E+001   0.35920E+001  -0.97281E+000
      28   0.19515E+002  -0.54728E+002   0.99555E+001  -0.17770E+001   0.59181E-010  -0.23834E-009
      29   0.11015E+002  -0.58763E+002   0.68508E+001  -0.25850E+001  -0.35920E+001   0.97281E+000
      30   0.25152E+001  -0.62799E+002   0.37461E+001  -0.33930E+001  -0.37497E+001   0.25818E+001
      31   0.26579E+001  -0.45866E+002   0.11299E+001   0.23907E+001   0.26301E+001  -0.15736E+001
      32   0.11809E+002  -0.43690E+002   0.39462E+001   0.33467E+001   0.15944E+001  -0.30180E+000
      33   0.20960E+002  -0.41514E+002   0.67625E+001   0.43027E+001   0.11558E-009  -0.20252E-009
      34   0.11809E+002  -0.43690E+002   0.39462E+001   0.33467E+001  -0.15944E+001   0.30180E+000
      35   0.26579E+001  -0.45866E+002   0.11299E+001   0.23907E+001  -0.26301E+001   0.15736E+001
      36   0.10979E+002  -0.20134E+002   0.11319E+001   0.29341E+001  -0.37651E+000  -0.58019E+000
      37   0.19512E+002  -0.22641E+002   0.45382E+001   0.31334E+001  -0.15075E+000   0.13910E+001
      38   0.28046E+002  -0.25147E+002   0.79446E+001   0.33328E+001   0.74288E-010   0.26541E-009
      39   0.19512E+002  -0.22641E+002   0.45382E+001   0.31334E+001   0.15075E+000  -0.13910E+001
      40   0.10979E+002  -0.20134E+002   0.11319E+001   0.29341E+001   0.37651E+000   0.58019E+000
      41   0.15710E+002  -0.66614E+001   0.25250E+001  -0.32178E+000  -0.17059E+001  -0.32800E+000
      42   0.23413E+002  -0.10809E+002   0.50931E+001  -0.76002E+000  -0.34760E-002   0.25210E+001
      43   0.31117E+002  -0.14957E+002   0.76612E+001  -0.11983E+001  -0.66047E-010   0.60316E-009
      44   0.23413E+002  -0.10809E+002   0.50931E+001  -0.76002E+000   0.34760E-002  -0.25210E+001
      45   0.15710E+002  -0.66614E+001   0.25250E+001  -0.32178E+000   0.17059E+001   0.32800E+000
      46   0.38193E+002  -0.57580E+001   0.46794E+001  -0.52491E+001   0.32309E+001   0.96814E+000
      47   0.41371E+002  -0.94946E+001   0.57160E+001  -0.49698E+001   0.14052E+000   0.13888E+001
      48   0.44549E+002  -0.13231E+002   0.67525E+001  -0.46906E+001   0.44239E-010  -0.40344E-009
      49   0.41371E+002  -0.94946E+001   0.57160E+001  -0.49698E+001  -0.14052E+000  -0.13888E+001
      50   0.38193E+002  -0.57580E+001   0.46794E+001  -0.52491E+001  -0.32309E+001  -0.96814E+000
      51   0.15862E+002  -0.28934E+002   0.19060E+001  -0.69746E+001  -0.43983E+000   0.61910E+000
      52   0.20640E+002  -0.28207E+002   0.23100E+001  -0.71812E+001  -0.45265E+000  -0.54179E+000
      53   0.25418E+002  -0.27480E+002   0.27140E+001  -0.73878E+001  -0.30347E-009   0.57330E-009
      54   0.20640E+002  -0.28207E+002   0.23100E+001  -0.71812E+001   0.45265E+000   0.54179E+000
      55   0.15862E+002  -0.28934E+002   0.19060E+001  -0.69746E+001   0.43983E+000  -0.61910E+000
      56   0.15862E+002  -0.28934E+002   0.19060E+001   0.69746E+001   0.43983E+000   0.61910E+000
      57   0.20640E+002  -0.28207E+002   0.23100E+001   0.71812E+001   0.45265E+000  -0.54179E+000
      58   0.25418E+002  -0.27480E+002   0.27140E+001   0.73878E+001   0.79378E-010  -0.19999E-009
      59   0.20640E+002  -0.28207E+002   0.23100E+001   0.71812E+001  -0.45265E+000   0.54179E+000
      60   0.15862E+002  -0.28934E+002   0.19060E+001   0.69746E+001  -0.43983E+000  -0.61910E+000
      61   0.38193E+002  -0.57580E+001   0.46794E+001   0.52491E+001  -0.32309E+001   0.96814E+000
      62   0.41371E+002  -0.94946E+001   0.57160E+001   0.49698E+001  -0.14052E+000   0.13888E+001
      63   0.44549E+002  -0.13231E+002   0.67525E+001   0.46906E+001  -0.85975E-010   0.23859E-009
      64   0.41371E+002  -0.94946E+001   0.57160E+001   0.49698E+001   0.14052E+000  -0.13888E+001
      65   0.38193E+002  -0.57580E+001   0.46794E+001   0.52491E+001   0.32309E+001  -0.96814E+000
      66   0.29987E+002  -0.13204E+002   0.36364E+001  -0.74812E+001   0.25090E+001   0.89797E+000
      67   0.33826E+002  -0.15771E+002   0.45675E+001  -0.74220E+001   0.78035E+000   0.57598E+000
      68   0.37666E+002  -0.18338E+002   0.54985E+001  -0.73628E+001  -0.83532E-010  -0.17983E-010
      69   0.33826E+002  -0.15771E+002   0.45675E+001  -0.74220E+001  -0.78035E+000  -0.57598E+000
      70   0.29987E+002  -0.13204E+002   0.36364E+001  -0.74812E+001  -0.25090E+001  -0.89797E+000
      71   0.14186E+002  -0.40414E+002   0.32426E+001  -0.27018E+001  -0.29171E+001   0.57672E+000
      72   0.18309E+002  -0.38905E+002   0.44646E+001  -0.26702E+001  -0.29088E+001  -0.70792E+000
      73   0.22432E+002  -0.37396E+002   0.56866E+001  -0.26387E+001  -0.23319E-009   0.57772E-009
      74   0.18309E+002  -0.38905E+002   0.44646E+001  -0.26702E+001   0.29088E+001   0.70792E+000
      75   0.14186E+002  -0.40414E+002   0.32426E+001  -0.27018E+001   0.29171E+001  -0.57672E+000
      76   0.18429E+002  -0.43611E+002   0.52667E+001   0.54114E-009  -0.19535E-009   0.74304E+000
      77   0.21620E+002  -0.43444E+002   0.77282E+001   0.45788E-009  -0.68322E-010  -0.56914E+000
      78   0.24811E+002  -0.43276E+002   0.10190E+002   0.20846E-009   0.52078E-010   0.21739E-009
      79   0.21620E+002  -0.43444E+002   0.77282E+001  -0.97450E-010   0.48191E-010   0.56914E+000
      80   0.18429E+002  -0.43611E+002   0.52667E+001  -0.23721E-009   0.50926E-010  -0.74304E+000
      81   0.14186E+002  -0.40414E+002   0.32426E+001   0.27018E+001   0.29171E+001   0.57672E+000
      82   0.18309E+002  -0.38905E+002   0.44646E+001   0.26702E+001   0.29088E+001  -0.70792E+000
      83   0.22432E+002  -0.37396E+002   0.56866E+001   0.26387E+001   0.78230E-010  -0.33710E-010
      84   0.18309E+002  -0.38905E+002   0.44646E+001   0.26702E+001  -0.29088E+001   0.70792E+000
      85   0.14186E+002  -0.40414E+002   0.32426E+001   0.27018E+001  -0.29171E+001  -0.57672E+000
      86   0.29987E+002  -0.13204E+002   0.36364E+001   0.74812E+001  -0.25090E+001   0.89797E+000
      87   0.33826E+002  -0.15771E+002   0.45675E+001   0.74220E+001  -0.78035E+000   0.57598E+000
      88   0.37666E+002  -0.18338E+002   0.54985E+001   0.73628E+001   0.45611E-010  -0.17754E-010
      89   0.33826E+002  -0.15771E+002   0.45675E+001   0.74220E+001   0.78035E+000  -0.57598E+000
      90   0.29987E+002  -0.13204E+002   0.36364E+001   0.74812E+001   0.25090E+001  -0.89797E+000
      91   0.55239E+002  -0.38155E+001   0.47445E+001  -0.72377E+001   0.50245E+001   0.28572E+001
      92   0.57133E+002  -0.57715E+001   0.75194E+001  -0.80013E+001   0.95473E+000  -0.11272E+000
      93   0.59027E+002  -0.77276E+001   0.10294E+002  -0.87650E+001  -0.16097E-009  -0.37725E-009
      94   0.57133E+002  -0.57715E+001   0.75194E+001  -0.80013E+001  -0.95473E+000   0.11272E+000
      95   0.55239E+002  -0.38155E+001   0.47445E+001  -0.72377E+001  -0.50245E+001  -0.28572E+001
      96   0.46188E+002  -0.60481E+001   0.43262E+001  -0.86469E+001   0.45339E+001   0.12392E+001
      97   0.48703E+002  -0.66861E+001   0.59734E+001  -0.94246E+001   0.16891E+001  -0.13084E+001
      98   0.51218E+002  -0.73242E+001   0.76206E+001  -0.10202E+002  -0.66859E-010  -0.23788E-009
      99   0.48703E+002  -0.66861E+001   0.59734E+001  -0.94246E+001  -0.16891E+001   0.13084E+001
     100   0.46188E+002  -0.60481E+001   0.43262E+001  -0.86469E+001  -0.45339E+001  -0.12392E+001
     101   0.31297E+002  -0.11268E+002   0.17522E+001  -0.10892E+002   0.17224E+001  -0.10838E+001
     102   0.35270E+002  -0.96376E+001   0.27881E+001  -0.10922E+002   0.96617E+000  -0.28022E+001
     103   0.39243E+002  -0.80069E+001   0.38240E+001  -0.10953E+002  -0.48008E-010  -0.53946E-010
     104   0.35270E+002  -0.96376E+001   0.27881E+001  -0.10922E+002  -0.96617E+000   0.28022E+001
     105   0.31297E+002  -0.11268E+002   0.17522E+001  -0.10892E+002  -0.17224E+001   0.10838E+001
     106   0.25970E+002  -0.12520E+002   0.24617E+001  -0.69596E-010   0.13116E-009   0.10665E+001
     107   0.29554E+002  -0.12546E+002   0.58556E+001   0.56162E-010   0.76298E-010  -0.11667E+001
     108   0.33139E+002  -0.12572E+002   0.92495E+001   0.19970E-009  -0.37880E-010  -0.35318E-010
     109   0.29554E+002  -0.12546E+002   0.58556E+001  -0.15174E-010  -0.57529E-010   0.11667E+001
     110   0.25970E+002  -0.12520E+002   0.24617E+001  -0.24782E-009  -0.17868E-010  -0.10665E+001
     111   0.31297E+002  -0.11268E+002   0.17522E+001   0.10892E+002  -0.17224E+001  -0.10838E+001
     112   0.35270E+002  -0.96376E+001   0.27881E+001   0.10922E+002  -0.96617E+000  -0.28022E+001
     113   0.39243E+002  -0.80069E+001   0.38240E+001   0.10953E+002   0.29476E-010  -0.41466E-009
     114   0.35270E+002  -0.96376E+001   0.27881E+001   0.10922E+002   0.96617E+000   0.28022E+001
     115   0.31297E+002  -0.11268E+002   0.17522E+001   0.10892E+002   0.17224E+001   0.10838E+001
     116   0.46188E+002  -0.60481E+001   0.43262E+001   0.86469E+001  -0.45339E+001   0.12392E+001
     117   0.48703E+002  -0.66861E+001   0.59734E+001   0.94246E+001  -0.16891E+001  -0.13084E+001
     118   0.51218E+002  -0.73242E+001   0.76206E+001   0.10202E+002  -0.15251E-009  -0.35181E-009
     119   0.48703E+002  -0.66861E+001   0.59734E+001   0.94246E+001   0.16891E+001   0.13084E+001
     120   0.46188E+002  -0.60481E+001   0.43262E+001   0.86469E+001   0.45339E+001  -0.12392E+001
     121   0.55239E+002  -0.38155E+001   0.47445E+001   0.72377E+001  -0.50245E+001   0.28572E+001
     122   0.57133E+002  -0.57715E+001   0.75194E+001   0.80013E+001  -0.95473E+000  -0.11272E+000
     123   0.59027E+002  -0.77276E+001   0.10294E+002   0.87650E+001  -0.19236E-009  -0.84460E-010
     124   0.57133E+002  -0.57715E+001   0.75194E+001   0.80013E+001   0.95473E+000   0.11272E+000
     125   0.55239E+002  -0.38155E+001   0.47445E+001   0.72377E+001   0.50245E+001  -0.28572E+001
     126   0.25713E+002  -0.13388E+002   0.10291E+001  -0.10563E+002  -0.15816E+001  -0.36116E+000
     127   0.29910E+002  -0.12110E+002   0.35022E+001  -0.92413E+001  -0.14749E+001  -0.21335E+001
     128   0.34107E+002  -0.10833E+002   0.59753E+001  -0.79198E+001  -0.69326E-010  -0.51032E-010
     129   0.29910E+002  -0.12110E+002   0.35022E+001  -0.92413E+001   0.14749E+001   0.21335E+001
     130   0.25713E+002  -0.13388E+002   0.10291E+001  -0.10563E+002   0.15816E+001   0.36116E+000
     131   0.25713E+002  -0.13388E+002   0.10291E+001   0.10563E+002   0.15816E+001  -0.36116E+000
     132   0.29910E+002  -0.12110E+002   0.35022E+001   0.92413E+001   0.14749E+001  -0.21335E+001
     133   0.34107E+002  -0.10833E+002   0.59753E+001   0.79198E+001   0.55613E-010  -0.94053E-010
     134   0.29910E+002  -0.12110E+002   0.35022E+001   0.92413E+001  -0.14749E+001   0.21335E+001
     135   0.25713E+002  -0.13388E+002   0.10291E+001   0.10563E+002  -0.15816E+001   0.36116E+000
     136   0.31669E+002  -0.32619E+001   0.17004E+001  -0.81926E+001  -0.72237E+000  -0.65844E+001
     137   0.32930E+002  -0.28442E+001   0.44904E+001  -0.69164E+001  -0.13438E+000  -0.44108E+001
     138   0.34190E+002  -0.24266E+001   0.72804E+001  -0.56402E+001   0.12638E-009  -0.45099E-009
     139   0.32930E+002  -0.28442E+001   0.44904E+001  -0.69164E+001   0.13438E+000   0.44108E+001
     140   0.31669E+002  -0.32619E+001   0.17004E+001  -0.81926E+001   0.72237E+000   0.65844E+001
     141   0.31669E+002  -0.32619E+001   0.17004E+001   0.81926E+001   0.72237E+000  -0.65844E+001
     142   0.32930E+002  -0.28442E+001   0.44904E+001   0.69164E+001   0.13438E+000  -0.44108E+001
     143   0.34190E+002  -0.24266E+001   0.72804E+001   0.56402E+001  -0.14561E-009  -0.33163E-009
     144   0.32930E+002  -0.28442E+001   0.44904E+001   0.69164E+001  -0.13438E+000   0.44108E+001
     145   0.31669E+002  -0.32619E+001   0.17004E+001   0.81926E+001  -0.72237E+000   0.65844E+001
     146   0.35722E+002  -0.25521E+001   0.36787E+001  -0.43247E+000   0.32376E+001  -0.27958E+000
     147   0.35966E+002  -0.48230E+001   0.51388E+001  -0.11641E+001   0.17520E+001  -0.20627E+001
     148   0.36211E+002  -0.70938E+001   0.65989E+001  -0.18957E+001   0.20870E-009  -0.27455E-009
     149   0.35966E+002  -0.48230E+001   0.51388E+001  -0.11641E+001  -0.17520E+001   0.20627E+001
     150   0.35722E+002  -0.25521E+001   0.36787E+001  -0.43247E+000  -0.32376E+001   0.27958E+000
     151   0.35203E+002  -0.57193E+001   0.24414E+001  -0.42559E+001   0.30673E+001  -0.25740E+001
     152   0.35635E+002  -0.64310E+001   0.40985E+001  -0.53365E+001   0.21797E+001  -0.32681E+001
     153   0.36068E+002  -0.71426E+001   0.57556E+001  -0.64170E+001   0.22856E-009  -0.18881E-009
     154   0.35635E+002  -0.64310E+001   0.40985E+001  -0.53365E+001  -0.21797E+001   0.32681E+001
     155   0.35203E+002  -0.57193E+001   0.24414E+001  -0.42559E+001  -0.30673E+001   0.25740E+001
     156   0.34878E+002  -0.81100E+001   0.10353E+001  -0.94327E+001   0.12947E+001  -0.63492E+001
     157   0.35584E+002  -0.70214E+001   0.31107E+001  -0.98371E+001   0.14957E+001  -0.49134E+001
     158   0.36289E+002  -0.59328E+001   0.51861E+001  -0.10241E+002   0.24533E-009  -0.19120E-009
     159   0.35584E+002  -0.70214E+001   0.31107E+001  -0.98371E+001  -0.14957E+001   0.49134E+001
     160   0.34878E+002  -0.81100E+001   0.10353E+001  -0.94327E+001  -0.12947E+001   0.63492E+001
     161   0.28266E+002   0.80962E+000   0.25344E+001  -0.50575E-009  -0.89798E-010  -0.53389E+001
     162   0.29996E+002   0.31531E+000   0.58176E+001  -0.38241E-009  -0.37193E-010  -0.34682E+001
     163   0.31725E+002  -0.17901E+000   0.91008E+001  -0.37151E-010  -0.11822E-009  -0.42674E-009
     164   0.29996E+002   0.31531E+000   0.58176E+001  -0.17137E-009  -0.50623E-010   0.34682E+001
     165   0.28266E+002   0.80962E+000   0.25344E+001  -0.52751E-009   0.15061E-009   0.53389E+001
     166   0.34878E+002  -0.81100E+001   0.10353E+001   0.94327E+001  -0.12947E+001  -0.63492E+001
     167   0.35584E+002  -0.70214E+001   0.31107E+001   0.98371E+001  -0.14957E+001  -0.49134E+001
     168   0.36289E+002  -0.59328E+001   0.51861E+001   0.10241E+002  -0.16837E-009  -0.50121E-009
     169   0.35584E+002  -0.70214E+001   0.31107E+001   0.98371E+001   0.14957E+001   0.49134E+001
     170   0.34878E+002  -0.81100E+001   0.10353E+001   0.94327E+001   0.12947E+001   0.63492E+001
     171   0.35203E+002  -0.57193E+001   0.24414E+001   0.42559E+001  -0.30673E+001  -0.25740E+001
     172   0.35635E+002  -0.64310E+001   0.40985E+001   0.53365E+001  -0.21797E+001  -0.32681E+001
     173   0.36068E+002  -0.71426E+001   0.57556E+001   0.64170E+001  -0.20957E-009  -0.33748E-009
     174   0.35635E+002  -0.64310E+001   0.40985E+001   0.53365E+001   0.21797E+001   0.32681E+001
     175   0.35203E+002  -0.57193E+001   0.24414E+001   0.42559E+001   0.30673E+001   0.25740E+001
     176   0.35722E+002  -0.25521E+001   0.36787E+001   0.43247E+000  -0.32376E+001  -0.27958E+000
     177   0.35966E+002  -0.48230E+001   0.51388E+001   0.11641E+001  -0.17520E+001  -0.20627E+001
     178   0.36211E+002  -0.70938E+001   0.65989E+001   0.18957E+001  -0.12664E-009  -0.10496E-009
     179   0.35966E+002  -0.48230E+001   0.51388E+001   0.11641E+001   0.17520E+001   0.20627E+001
     180   0.35722E+002  -0.25521E+001   0.36787E+001   0.43247E+000   0.32376E+001   0.27958E+000
     181   0.10022E+002  -0.40199E+001   0.11925E+001  -0.35019E+001   0.83578E+000  -0.44806E+001
     182   0.10259E+002  -0.40496E+001   0.27628E+000  -0.34266E+001   0.14573E+001  -0.38626E+001
     183   0.10496E+002  -0.40793E+001  -0.63989E+000  -0.33513E+001   0.23437E-009  -0.20560E-009
     184   0.10259E+002  -0.40496E+001   0.27628E+000  -0.34266E+001  -0.14573E+001   0.38626E+001
     185   0.10022E+002  -0.40199E+001   0.11925E+001  -0.35019E+001  -0.83578E+000   0.44806E+001
     186   0.18075E+002   0.70732E+001   0.34388E+001  -0.23161E-009  -0.11027E-009  -0.51811E+001
     187   0.19809E+002   0.67278E+001   0.54357E+001  -0.33669E-009  -0.13803E-009  -0.40046E+001
     188   0.21544E+002   0.63824E+001   0.74325E+001  -0.45828E-009  -0.83376E-010  -0.47901E-009
     189   0.19809E+002   0.67278E+001   0.54357E+001  -0.41934E-009   0.13545E-010   0.40046E+001
     190   0.18075E+002   0.70732E+001   0.34388E+001  -0.36388E-009   0.28048E-010   0.51811E+001
     191   0.10022E+002  -0.40199E+001   0.11925E+001   0.35019E+001  -0.83578E+000  -0.44806E+001
     192   0.10259E+002  -0.40496E+001   0.27628E+000   0.34266E+001  -0.14573E+001  -0.38626E+001
     193   0.10496E+002  -0.40793E+001  -0.63989E+000   0.33513E+001   0.80478E-010  -0.45448E-009
     194   0.10259E+002  -0.40496E+001   0.27628E+000   0.34266E+001   0.14573E+001   0.38626E+001
     195   0.10022E+002  -0.40199E+001   0.11925E+001   0.35019E+001   0.83578E+000   0.44806E+001
     196   0.39289E+001  -0.32823E+001   0.22732E+001   0.26844E+000   0.67433E+000  -0.41944E+001
     197   0.40667E+001  -0.43456E+001  -0.37611E+000   0.48173E+000   0.13298E+001  -0.37205E+001
     198   0.42044E+001  -0.54089E+001  -0.30254E+001   0.69501E+000   0.29447E-009  -0.23655E-009
     199   0.40667E+001  -0.43456E+001  -0.37611E+000   0.48173E+000  -0.13298E+001   0.37205E+001
     200   0.39289E+001  -0.32823E+001   0.22732E+001   0.26844E+000  -0.67433E+000   0.41944E+001
     201   0.17565E+002  -0.17791E+001   0.54254E+000  -0.56443E+001   0.52610E+000  -0.48971E+001
     202   0.17726E+002  -0.11453E+001   0.18111E+001  -0.56937E+001   0.11241E+001  -0.39734E+001
     203   0.17887E+002  -0.51140E+000   0.30797E+001  -0.57431E+001   0.16033E-009  -0.13255E-009
     204   0.17726E+002  -0.11453E+001   0.18111E+001  -0.56937E+001  -0.11241E+001   0.39734E+001
     205   0.17565E+002  -0.17791E+001   0.54254E+000  -0.56443E+001  -0.52610E+000   0.48971E+001
     206   0.18544E+002   0.41363E+001   0.22061E+001  -0.15068E+001   0.65463E-001  -0.51042E+001
     207   0.19405E+002   0.40955E+001   0.40646E+001  -0.13463E+001   0.55149E+000  -0.39734E+001
     208   0.20265E+002   0.40547E+001   0.59231E+001  -0.11858E+001   0.74216E-010  -0.29356E-009
     209   0.19405E+002   0.40955E+001   0.40646E+001  -0.13463E+001  -0.55149E+000   0.39734E+001
     210   0.18544E+002   0.41363E+001   0.22061E+001  -0.15068E+001  -0.65463E-001   0.51042E+001
     211   0.18544E+002   0.41363E+001   0.22061E+001   0.15068E+001  -0.65463E-001  -0.51042E+001
     212   0.19405E+002   0.40955E+001   0.40646E+001   0.13463E+001  -0.55149E+000  -0.39734E+001
     213   0.20265E+002   0.40547E+001   0.59231E+001   0.11858E+001  -0.23276E-009  -0.51372E-009
     214   0.19405E+002   0.40955E+001   0.40646E+001   0.13463E+001   0.55149E+000   0.39734E+001
     215   0.18544E+002   0.41363E+001   0.22061E+001   0.15068E+001   0.65463E-001   0.51042E+001
     216   0.17565E+002  -0.17791E+001   0.54254E+000   0.56443E+001  -0.52610E+000  -0.48971E+001
     217   0.17726E+002  -0.11453E+001   0.18111E+001   0.56937E+001  -0.11241E+001  -0.39734E+001
     218   0.17887E+002  -0.51140E+000   0.30797E+001   0.57431E+001  -0.10659E-009  -0.60472E-009
     219   0.17726E+002  -0.11453E+001   0.18111E+001   0.56937E+001   0.11241E+001   0.39734E+001
     220   0.17565E+002  -0.17791E+001   0.54254E+000   0.56443E+001   0.52610E+000   0.48971E+001
     221   0.39289E+001  -0.32823E+001   0.22732E+001  -0.26844E+000  -0.67433E+000  -0.41944E+001
     222   0.40667E+001  -0.43456E+001  -0.37611E+000  -0.48173E+000  -0.13298E+001  -0.37205E+001
     223   0.42044E+001  -0.54089E+001  -0.30254E+001  -0.69501E+000   0.77399E-010  -0.26562E-009
     224   0.40667E+001  -0.43456E+001  -0.37611E+000  -0.48173E+000   0.13298E+001   0.37205E+001
     225   0.39289E+001  -0.32823E+001   0.22732E+001  -0.26844E+000   0.67433E+000   0.41944E+001
     226   0.10824E+002   0.42645E+001   0.48215E+001  -0.40965E+001  -0.40488E+000  -0.61364E+001
     227   0.11794E+002   0.52139E+001   0.43135E+001  -0.37637E+001   0.31593E+000  -0.56013E+001
     228   0.12763E+002   0.61633E+001   0.38055E+001  -0.34309E+001  -0.14822E-009  -0.21291E-009
     229   0.11794E+002   0.52139E+001   0.43135E+001  -0.37637E+001  -0.31593E+000   0.56013E+001
     230   0.10824E+002   0.42645E+001   0.48215E+001  -0.40965E+001   0.40488E+000   0.61364E+001
     231   0.73451E+001   0.73620E+001   0.38061E+001  -0.31400E+001   0.54058E-001  -0.50362E+001
     232   0.89507E+001   0.95355E+001   0.45217E+001  -0.27421E+001   0.18470E+000  -0.50879E+001
     233   0.10556E+002   0.11709E+002   0.52373E+001  -0.23443E+001  -0.52454E-010  -0.28316E-009
     234   0.89507E+001   0.95355E+001   0.45217E+001  -0.27421E+001  -0.18470E+000   0.50879E+001
     235   0.73451E+001   0.73620E+001   0.38061E+001  -0.31400E+001  -0.54058E-001   0.50362E+001
     236   0.17639E+001   0.14820E+002   0.26299E+001  -0.79955E+000   0.77996E+000  -0.30707E+001
     237   0.39332E+001   0.17059E+002   0.54676E+001  -0.91540E+000   0.29303E+000  -0.43878E+001
     238   0.61026E+001   0.19298E+002   0.83052E+001  -0.10312E+001   0.29095E-010  -0.22882E-009
     239   0.39332E+001   0.17059E+002   0.54676E+001  -0.91540E+000  -0.29303E+000   0.43878E+001
     240   0.17639E+001   0.14820E+002   0.26299E+001  -0.79955E+000  -0.77996E+000   0.30707E+001
     241   0.21641E+001   0.19846E+002   0.37735E+001  -0.18458E-001   0.71413E+000  -0.26605E+001
     242   0.42699E+001   0.20555E+002   0.76124E+001  -0.82516E+000   0.46540E+000  -0.46844E+001
     243   0.63756E+001   0.21265E+002   0.11451E+002  -0.16319E+001   0.78663E-010  -0.22899E-009
     244   0.42699E+001   0.20555E+002   0.76124E+001  -0.82516E+000  -0.46540E+000   0.46844E+001
     245   0.21641E+001   0.19846E+002   0.37735E+001  -0.18458E-001  -0.71413E+000   0.26605E+001
     246   0.46662E+001   0.20512E+002   0.50777E+001  -0.63233E-010   0.53861E-010  -0.31157E+001
     247   0.67809E+001   0.20851E+002   0.90196E+001  -0.30745E-009  -0.10377E-009  -0.51677E+001
     248   0.88956E+001   0.21190E+002   0.12961E+002  -0.65007E-009   0.33195E-010  -0.49897E-009
     249   0.67809E+001   0.20851E+002   0.90196E+001  -0.30002E-009  -0.18488E-011   0.51677E+001
     250   0.46662E+001   0.20512E+002   0.50777E+001   0.14844E-009  -0.33148E-009   0.31157E+001
     251   0.21641E+001   0.19846E+002   0.37735E+001   0.18458E-001  -0.71413E+000  -0.26605E+001
     252   0.42699E+001   0.20555E+002   0.76124E+001   0.82516E+000  -0.46540E+000  -0.46844E+001
     253   0.63756E+001   0.21265E+002   0.11451E+002   0.16319E+001  -0.41748E-010  -0.63697E-009
     254   0.42699E+001   0.20555E+002   0.76124E+001   0.82516E+000   0.46540E+000   0.46844E+001
     255   0.21641E+001   0.19846E+002   0.37735E+001   0.18458E-001   0.71413E+000   0.26605E+001
     256   0.17639E+001   0.14820E+002   0.26299E+001   0.79955E+000  -0.77996E+000  -0.30707E+001
     257   0.39332E+001   0.17059E+002   0.54676E+001   0.91540E+000  -0.29303E+000  -0.43878E+001
     258   0.61026E+001   0.19298E+002   0.83052E+001   0.10312E+001   0.97550E-010  -0.75898E-009
     259   0.39332E+001   0.17059E+002   0.54676E+001   0.91540E+000   0.29303E+000   0.43878E+001
     260   0.17639E+001   0.14820E+002   0.26299E+001   0.79955E+000   0.77996E+000   0.30707E+001
     261   0.73451E+001   0.73620E+001   0.38061E+001   0.31400E+001  -0.54058E-001  -0.50362E+001
     262   0.89507E+001   0.95355E+001   0.45217E+001   0.27421E+001  -0.18470E+000  -0.50879E+001
     263   0.10556E+002   0.11709E+002   0.52373E+001   0.23443E+001   0.74250E-010  -0.66924E-009
     264   0.89507E+001   0.95355E+001   0.45217E+001   0.27421E+001   0.18470E+000   0.50879E+001
     265   0.73451E+001   0.73620E+001   0.38061E+001   0.31400E+001   0.54058E-001   0.50362E+001
     266   0.10824E+002   0.42645E+001   0.48215E+001   0.40965E+001   0.40488E+000  -0.61364E+001
     267   0.11794E+002   0.52139E+001   0.43135E+001   0.37637E+001  -0.31593E+000  -0.56013E+001
     268   0.12763E+002   0.61633E+001   0.38055E+001   0.34309E+001  -0.54036E-010  -0.45029E-009
     269   0.11794E+002   0.52139E+001   0.43135E+001   0.37637E+001   0.31593E+000   0.56013E+001
     270   0.10824E+002   0.42645E+001   0.48215E+001   0.40965E+001  -0.40488E+000   0.61364E+001
     271   0.56141E+001   0.32923E+002   0.49986E+001  -0.50398E+001   0.33753E+000  -0.18892E+001
     272   0.25198E+001   0.32168E+002   0.93962E+001  -0.52640E+001   0.50333E-001  -0.35729E+001
     273  -0.57437E+000   0.31413E+002   0.13794E+002  -0.54882E+001   0.14605E-009  -0.33126E-009
     274   0.25198E+001   0.32168E+002   0.93962E+001  -0.52640E+001  -0.50333E-001   0.35729E+001
     275   0.56141E+001   0.32923E+002   0.49986E+001  -0.50398E+001  -0.33753E+000   0.18892E+001
     276   0.56141E+001   0.32923E+002   0.49986E+001   0.50398E+001  -0.33753E+000  -0.18892E+001
     277   0.25198E+001   0.32168E+002   0.93962E+001   0.52640E+001  -0.50333E-001  -0.35729E+001
     278  -0.57437E+000   0.31413E+002   0.13794E+002   0.54882E+001   0.19489E-010  -0.32496E-009
     279   0.25198E+001   0.32168E+002   0.93962E+001   0.52640E+001   0.50333E-001   0.35729E+001
     280   0.56141E+001   0.32923E+002   0.49986E+001   0.50398E+001   0.33753E+000   0.18892E+001
     281   0.31942E+002   0.11101E+002   0.63621E+001  -0.28096E+001  -0.14601E+001  -0.38047E+001
     282   0.28818E+002   0.10705E+002   0.76995E+001  -0.27775E+001  -0.23564E+000  -0.40343E+001
     283   0.25694E+002   0.10310E+002   0.90368E+001  -0.27454E+001  -0.15777E-009  -0.99601E-010
     284   0.28818E+002   0.10705E+002   0.76995E+001  -0.27775E+001   0.23564E+000   0.40343E+001
     285   0.31942E+002   0.11101E+002   0.63621E+001  -0.28096E+001   0.14601E+001   0.38047E+001
     286   0.21448E+002   0.16768E+002   0.50282E+001  -0.26492E+001  -0.27375E+000  -0.33276E+001
     287   0.19394E+002   0.18200E+002   0.73514E+001  -0.24032E+001   0.36124E-001  -0.38310E+001
     288   0.17341E+002   0.19633E+002   0.96746E+001  -0.21572E+001  -0.12831E-009  -0.17136E-009
     289   0.19394E+002   0.18200E+002   0.73514E+001  -0.24032E+001  -0.36124E-001   0.38310E+001
     290   0.21448E+002   0.16768E+002   0.50282E+001  -0.26492E+001   0.27375E+000   0.33276E+001
     291   0.80887E+001   0.26829E+002   0.36415E+001  -0.36561E+001   0.79862E+000  -0.23341E+001
     292   0.66035E+001   0.28680E+002   0.76082E+001  -0.34106E+001   0.17711E+000  -0.35339E+001
     293   0.51183E+001   0.30532E+002   0.11575E+002  -0.31651E+001   0.14570E-011  -0.30598E-009
     294   0.66035E+001   0.28680E+002   0.76082E+001  -0.34106E+001  -0.17711E+000   0.35339E+001
     295   0.80887E+001   0.26829E+002   0.36415E+001  -0.36561E+001  -0.79862E+000   0.23341E+001
     296   0.60040E+001   0.34624E+002   0.64085E+001   0.89967E-010   0.92419E-010  -0.19609E+001
     297   0.18030E+001   0.32670E+002   0.10579E+002   0.10705E-009   0.77297E-010  -0.37057E+001
     298  -0.23979E+001   0.30717E+002   0.14750E+002   0.19967E-009   0.15697E-009  -0.31054E-009
     299   0.18030E+001   0.32670E+002   0.10579E+002   0.52712E-009   0.81551E-010   0.37057E+001
     300   0.60040E+001   0.34624E+002   0.64085E+001   0.77903E-009  -0.88669E-010   0.19609E+001
     301   0.80887E+001   0.26829E+002   0.36415E+001   0.36561E+001  -0.79862E+000  -0.23341E+001
     302   0.66035E+001   0.28680E+002   0.76082E+001   0.34106E+001  -0.17711E+000  -0.35339E+001
     303   0.51183E+001   0.30532E+002   0.11575E+002   0.31651E+001  -0.65483E-010  -0.46864E-009
     304   0.66035E+001   0.28680E+002   0.76082E+001   0.34106E+001   0.17711E+000   0.35339E+001
     305   0.80887E+001   0.26829E+002   0.36415E+001   0.36561E+001   0.79862E+000   0.23341E+001
     306   0.21448E+002   0.16768E+002   0.50282E+001   0.26492E+001   0.27375E+000  -0.33276E+001
     307   0.19394E+002   0.18200E+002   0.73514E+001   0.24032E+001  -0.36124E-001  -0.38310E+001
     308   0.17341E+002   0.19633E+002   0.96746E+001   0.21572E+001  -0.92272E-010  -0.46698E-009
     309   0.19394E+002   0.18200E+002   0.73514E+001   0.24032E+001   0.36124E-001   0.38310E+001
     310   0.21448E+002   0.16768E+002   0.50282E+001   0.26492E+001  -0.27375E+000   0.33276E+001
     311   0.31942E+002   0.11101E+002   0.63621E+001   0.28096E+001   0.14601E+001  -0.38047E+001
     312   0.28818E+002   0.10705E+002   0.76995E+001   0.27775E+001   0.23564E+000  -0.40343E+001
     313   0.25694E+002   0.10310E+002   0.90368E+001   0.27454E+001  -0.13820E-009  -0.31920E-009
     314   0.28818E+002   0.10705E+002   0.76995E+001   0.27775E+001  -0.23564E+000   0.40343E+001
     315   0.31942E+002   0.11101E+002   0.63621E+001   0.28096E+001  -0.14601E+001   0.38047E+001
     316   0.82899E+001   0.42780E+001   0.16924E+001  -0.17012E+001  -0.70325E-001   0.97697E+000
     317   0.76933E+001   0.38730E+001   0.17721E+001  -0.15547E+001   0.54809E+000   0.56557E+000
     318   0.70967E+001   0.34680E+001   0.18518E+001  -0.14083E+001   0.70123E-010  -0.73130E-011
     319   0.76933E+001   0.38730E+001   0.17721E+001  -0.15547E+001  -0.54809E+000  -0.56557E+000
     320   0.82899E+001   0.42780E+001   0.16924E+001  -0.17012E+001   0.70325E-001  -0.97697E+000
     321   0.81395E+001   0.82149E+001   0.13460E+001  -0.54431E+001   0.10554E-001   0.31502E+000
     322   0.81177E+001   0.90339E+001   0.20458E+001  -0.49144E+001   0.46335E+000   0.80977E-001
     323   0.80960E+001   0.98529E+001   0.27456E+001  -0.43856E+001   0.67390E-010  -0.11174E-009
     324   0.81177E+001   0.90339E+001   0.20458E+001  -0.49144E+001  -0.46335E+000  -0.80977E-001
     325   0.81395E+001   0.82149E+001   0.13460E+001  -0.54431E+001  -0.10554E-001  -0.31502E+000
     326   0.79877E+001   0.13313E+002   0.50664E+000  -0.10309E+002  -0.17795E+000  -0.23241E+000
     327   0.84715E+001   0.15135E+002   0.23533E+001  -0.92731E+001   0.22796E-001  -0.25814E+000
     328   0.89552E+001   0.16956E+002   0.41999E+001  -0.82372E+001   0.50680E-010  -0.21007E-009
     329   0.84715E+001   0.15135E+002   0.23533E+001  -0.92731E+001  -0.22796E-001   0.25814E+000
     330   0.79877E+001   0.13313E+002   0.50664E+000  -0.10309E+002   0.17795E+000   0.23241E+000
     331   0.71848E+001   0.18636E+002   0.12439E+001  -0.82878E+001  -0.51443E+000   0.73699E-001
     332   0.70489E+001   0.19181E+002   0.36784E+001  -0.74565E+001  -0.33670E+000   0.92448E-001
     333   0.69130E+001   0.19726E+002   0.61129E+001  -0.66252E+001  -0.73886E-011  -0.14280E-009
     334   0.70489E+001   0.19181E+002   0.36784E+001  -0.74565E+001   0.33670E+000  -0.92448E-001
     335   0.71848E+001   0.18636E+002   0.12439E+001  -0.82878E+001   0.51443E+000  -0.73699E-001
     336   0.63833E+001   0.22797E+002   0.24741E+001   0.75352E-009   0.49323E-010   0.26530E+000
     337   0.56971E+001   0.22287E+002   0.49697E+001   0.85006E-009   0.85075E-010   0.29757E+000
     338   0.50109E+001   0.21777E+002   0.74654E+001   0.86282E-009   0.12543E-010  -0.12940E-009
     339   0.56971E+001   0.22287E+002   0.49697E+001   0.77826E-009   0.79896E-010  -0.29757E+000
     340   0.63833E+001   0.22797E+002   0.24741E+001   0.77746E-009   0.25553E-009  -0.26530E+000
     341   0.71848E+001   0.18636E+002   0.12439E+001   0.82878E+001   0.51443E+000   0.73699E-001
     342   0.70489E+001   0.19181E+002   0.36784E+001   0.74565E+001   0.33670E+000   0.92448E-001
     343   0.69130E+001   0.19726E+002   0.61129E+001   0.66252E+001  -0.17000E-010  -0.16594E-009
     344   0.70489E+001   0.19181E+002   0.36784E+001   0.74565E+001  -0.33670E+000  -0.92448E-001
     345   0.71848E+001   0.18636E+002   0.12439E+001   0.82878E+001  -0.51443E+000  -0.73699E-001
     346   0.79877E+001   0.13313E+002   0.50664E+000   0.10309E+002   0.17795E+000  -0.23241E+000
     347   0.84715E+001   0.15135E+002   0.23533E+001   0.92731E+001  -0.22796E-001  -0.25814E+000
     348   0.89552E+001   0.16956E+002   0.41999E+001   0.82372E+001  -0.69104E-010  -0.15333E-009
     349   0.84715E+001   0.15135E+002   0.23533E+001   0.92731E+001   0.22796E-001   0.25814E+000
     350   0.79877E+001   0.13313E+002   0.50664E+000   0.10309E+002  -0.17795E+000   0.23241E+000
     351   0.81395E+001   0.82149E+001   0.13460E+001   0.54431E+001  -0.10554E-001   0.31502E+000
     352   0.81177E+001   0.90339E+001   0.20458E+001   0.49144E+001  -0.46335E+000   0.80977E-001
     353   0.80960E+001   0.98529E+001   0.27456E+001   0.43856E+001  -0.11697E-010  -0.23855E-010
     354   0.81177E+001   0.90339E+001   0.20458E+001   0.49144E+001   0.46335E+000  -0.80977E-001
     355   0.81395E+001   0.82149E+001   0.13460E+001   0.54431E+001   0.10554E-001  -0.31502E+000
     356   0.82899E+001   0.42780E+001   0.16924E+001   0.17012E+001   0.70325E-001   0.97697E+000
     357   0.76933E+001   0.38730E+001   0.17721E+001   0.15547E+001  -0.54809E+000   0.56557E+000
     358   0.70967E+001   0.34680E+001   0.18518E+001   0.14083E+001   0.42468E-011   0.10422E-009
     359   0.76933E+001   0.38730E+001   0.17721E+001   0.15547E+001   0.54809E+000  -0.56557E+000
     360   0.82899E+001   0.42780E+001   0.16924E+001   0.17012E+001  -0.70325E-001  -0.97697E+000
     361  -0.10783E+002  -0.37272E+001   0.71959E-001  -0.44475E+001   0.10993E+001  -0.82769E-001
     362  -0.90307E+001  -0.19879E+001   0.90798E+000  -0.38187E+001   0.71651E+000   0.20114E+000
     363  -0.72784E+001  -0.24865E+000   0.17440E+001  -0.31900E+001  -0.11660E-009   0.10579E-009
     364  -0.90307E+001  -0.19879E+001   0.90798E+000  -0.38187E+001  -0.71651E+000  -0.20114E+000
     365  -0.10783E+002  -0.37272E+001   0.71959E-001  -0.44475E+001  -0.10993E+001   0.82769E-001
     366  -0.17406E+001  -0.42518E+001   0.80679E-001  -0.67116E+001   0.27005E+000  -0.40073E+000
     367  -0.63454E+000  -0.31803E+001  -0.40389E+000  -0.59266E+001   0.18464E+000  -0.12022E+000
     368   0.47156E+000  -0.21089E+001  -0.88845E+000  -0.51415E+001   0.62025E-010  -0.33433E-010
     369  -0.63454E+000  -0.31803E+001  -0.40389E+000  -0.59266E+001  -0.18464E+000   0.12022E+000
     370  -0.17406E+001  -0.42518E+001   0.80679E-001  -0.67116E+001  -0.27005E+000   0.40073E+000
     371   0.10537E+002  -0.42385E+001  -0.32633E+000  -0.83978E+001  -0.51191E+000  -0.68799E+000
     372   0.11439E+002  -0.31827E+001  -0.21494E+001  -0.74077E+001  -0.40051E+000  -0.42405E+000
     373   0.12341E+002  -0.21268E+001  -0.39725E+001  -0.64175E+001   0.11166E-009  -0.88893E-010
     374   0.11439E+002  -0.31827E+001  -0.21494E+001  -0.74077E+001   0.40051E+000   0.42405E+000
     375   0.10537E+002  -0.42385E+001  -0.32633E+000  -0.83978E+001   0.51191E+000   0.68799E+000
     376   0.17387E+002   0.41131E+001   0.79919E+000   0.93479E-009   0.28107E-009  -0.56809E+000
     377   0.19251E+002   0.52037E+001  -0.73885E+000   0.75559E-009   0.15177E-009  -0.31359E+000
     378   0.21114E+002   0.62944E+001  -0.22769E+001   0.33474E-009   0.16394E-010  -0.27427E-009
     379   0.19251E+002   0.52037E+001  -0.73885E+000   0.92323E-010   0.85586E-011   0.31359E+000
     380   0.17387E+002   0.41131E+001   0.79919E+000   0.91562E-010   0.67989E-011   0.56809E+000
     381   0.10537E+002  -0.42385E+001  -0.32633E+000   0.83978E+001   0.51191E+000  -0.68799E+000
     382   0.11439E+002  -0.31827E+001  -0.21494E+001   0.74077E+001   0.40051E+000  -0.42405E+000
     383   0.12341E+002  -0.21268E+001  -0.39725E+001   0.64175E+001   0.93962E-010   0.46213E-010
     384   0.11439E+002  -0.31827E+001  -0.21494E+001   0.74077E+001  -0.40051E+000   0.42405E+000
     385   0.10537E+002  -0.42385E+001  -0.32633E+000   0.83978E+001  -0.51191E+000   0.68799E+000
     386  -0.17406E+001  -0.42518E+001   0.80679E-001   0.67116E+001  -0.27005E+000  -0.40073E+000
     387  -0.63454E+000  -0.31803E+001  -0.40389E+000   0.59266E+001  -0.18464E+000  -0.12022E+000
     388   0.47156E+000  -0.21089E+001  -0.88845E+000   0.51415E+001   0.12319E-009   0.17570E-009
     389  -0.63454E+000  -0.31803E+001  -0.40389E+000   0.59266E+001   0.18464E+000   0.12022E+000
     390  -0.17406E+001  -0.42518E+001   0.80679E-001   0.67116E+001   0.27005E+000   0.40073E+000
     391  -0.10783E+002  -0.37272E+001   0.71959E-001   0.44475E+001  -0.10993E+001  -0.82769E-001
     392  -0.90307E+001  -0.19879E+001   0.90798E+000   0.38187E+001  -0.71651E+000   0.20114E+000
     393  -0.72784E+001  -0.24865E+000   0.17440E+001   0.31900E+001   0.19582E-009   0.15019E-009
     394  -0.90307E+001  -0.19879E+001   0.90798E+000   0.38187E+001   0.71651E+000  -0.20114E+000
     395  -0.10783E+002  -0.37272E+001   0.71959E-001   0.44475E+001   0.10993E+001   0.82769E-001
     396   0.15579E+002   0.20621E+000   0.28560E-001  -0.46103E+001  -0.41403E+000  -0.61269E+000
     397   0.17183E+002   0.16056E+001  -0.16609E+001  -0.38291E+001  -0.39577E+000  -0.36005E+000
     398   0.18787E+002   0.30049E+001  -0.33504E+001  -0.30478E+001  -0.20439E-010  -0.57813E-010
     399   0.17183E+002   0.16056E+001  -0.16609E+001  -0.38291E+001   0.39577E+000   0.36005E+000
     400   0.15579E+002   0.20621E+000   0.28560E-001  -0.46103E+001   0.41403E+000   0.61269E+000
     401   0.15579E+002   0.20621E+000   0.28560E-001   0.46103E+001   0.41403E+000  -0.61269E+000
     402   0.17183E+002   0.16056E+001  -0.16609E+001   0.38291E+001   0.39577E+000  -0.36005E+000
     403   0.18787E+002   0.30049E+001  -0.33504E+001   0.30478E+001   0.96845E-010  -0.27341E-009
     404   0.17183E+002   0.16056E+001  -0.16609E+001   0.38291E+001  -0.39577E+000   0.36005E+000
     405   0.15579E+002   0.20621E+000   0.28560E-001   0.46103E+001  -0.41403E+000   0.61269E+000
     406  -0.32957E+001  -0.13449E+001  -0.18441E+001  -0.26450E+001  -0.15709E+000  -0.16355E+001
     407  -0.37928E+001   0.11347E+001   0.55250E+000  -0.26013E+001  -0.20187E+000  -0.19241E+001
     408  -0.42900E+001   0.36143E+001   0.29491E+001  -0.25576E+001  -0.86813E-010   0.11463E-009
     409  -0.37928E+001   0.11347E+001   0.55250E+000  -0.26013E+001   0.20187E+000   0.19241E+001
     410  -0.32957E+001  -0.13449E+001  -0.18441E+001  -0.26450E+001   0.15709E+000   0.16355E+001
     411   0.63623E+001  -0.61286E+000  -0.16603E+001  -0.29618E+001  -0.38646E+000  -0.15612E+001
     412   0.53894E+001   0.10214E+001  -0.77510E+000  -0.31386E+001  -0.38457E+000  -0.17943E+001
     413   0.44165E+001   0.26557E+001   0.11007E+000  -0.33154E+001  -0.34101E-010   0.52280E-010
     414   0.53894E+001   0.10214E+001  -0.77510E+000  -0.31386E+001   0.38457E+000   0.17943E+001
     415   0.63623E+001  -0.61286E+000  -0.16603E+001  -0.29618E+001   0.38646E+000   0.15612E+001
     416   0.20144E+002   0.13654E+001  -0.13093E+001  -0.11577E+001  -0.66486E+000  -0.16386E+001
     417   0.19139E+002   0.22090E+001  -0.26371E+001  -0.15613E+001  -0.60252E+000  -0.16992E+001
     418   0.18135E+002   0.30527E+001  -0.39648E+001  -0.19649E+001   0.56473E-010  -0.15024E-009
     419   0.19139E+002   0.22090E+001  -0.26371E+001  -0.15613E+001   0.60252E+000   0.16992E+001
     420   0.20144E+002   0.13654E+001  -0.13093E+001  -0.11577E+001   0.66486E+000   0.16386E+001
     421   0.24527E+002   0.41574E+001  -0.13466E+001   0.14874E+001  -0.38382E+000  -0.17107E+001
     422   0.24381E+002   0.52240E+001  -0.35947E+001   0.12575E+001  -0.38707E+000  -0.17186E+001
     423   0.24235E+002   0.62907E+001  -0.58428E+001   0.10276E+001   0.94423E-010  -0.37195E-009
     424   0.24381E+002   0.52240E+001  -0.35947E+001   0.12575E+001   0.38707E+000   0.17186E+001
     425   0.24527E+002   0.41574E+001  -0.13466E+001   0.14874E+001   0.38382E+000   0.17107E+001
     426   0.24787E+002   0.57032E+001  -0.15509E+001   0.37060E-009   0.22341E-009  -0.16312E+001
     427   0.25055E+002   0.69381E+001  -0.40179E+001   0.20309E-009   0.20227E-009  -0.17032E+001
     428   0.25324E+002   0.81731E+001  -0.64849E+001  -0.81626E-010   0.13869E-009  -0.55546E-009
     429   0.25055E+002   0.69381E+001  -0.40179E+001  -0.29278E-009  -0.35700E-010   0.17032E+001
     430   0.24787E+002   0.57032E+001  -0.15509E+001  -0.38674E-009  -0.16765E-009   0.16312E+001
     431   0.24527E+002   0.41574E+001  -0.13466E+001  -0.14874E+001   0.38382E+000  -0.17107E+001
     432   0.24381E+002   0.52240E+001  -0.35947E+001  -0.12575E+001   0.38707E+000  -0.17186E+001
     433   0.24235E+002   0.62907E+001  -0.58428E+001  -0.10276E+001   0.18661E-009  -0.47996E-009
     434   0.24381E+002   0.52240E+001  -0.35947E+001  -0.12575E+001  -0.38707E+000   0.17186E+001
     435   0.24527E+002   0.41574E+001  -0.13466E+001  -0.14874E+001  -0.38382E+000   0.17107E+001
     436   0.20144E+002   0.13654E+001  -0.13093E+001   0.11577E+001   0.66486E+000  -0.16386E+001
     437   0.19139E+002   0.22090E+001  -0.26371E+001   0.15613E+001   0.60252E+000  -0.16992E+001
     438   0.18135E+002   0.30527E+001  -0.39648E+001   0.19649E+001   0.11574E-009  -0.44292E-010
     439   0.19139E+002   0.22090E+001  -0.26371E+001   0.15613E+001  -0.60252E+000   0.16992E+001
     440   0.20144E+002   0.13654E+001  -0.13093E+001   0.11577E+001  -0.66486E+000   0.16386E+001
     441   0.63623E+001  -0.61286E+000  -0.16603E+001   0.29618E+001   0.38646E+000  -0.15612E+001
     442   0.53894E+001   0.10214E+001  -0.77510E+000   0.31386E+001   0.38457E+000  -0.17943E+001
     443   0.44165E+001   0.26557E+001   0.11007E+000   0.33154E+001   0.79696E-010   0.10164E-009
     444   0.53894E+001   0.10214E+001  -0.77510E+000   0.31386E+001  -0.38457E+000   0.17943E+001
     445   0.63623E+001  -0.61286E+000  -0.16603E+001   0.29618E+001  -0.38646E+000   0.15612E+001
     446  -0.32957E+001  -0.13449E+001  -0.18441E+001   0.26450E+001   0.15709E+000  -0.16355E+001
     447  -0.37928E+001   0.11347E+001   0.55250E+000   0.26013E+001   0.20187E+000  -0.19241E+001
     448  -0.42900E+001   0.36143E+001   0.29491E+001   0.25576E+001   0.11827E-009  -0.10653E-010
     449  -0.37928E+001   0.11347E+001   0.55250E+000   0.26013E+001  -0.20187E+000   0.19241E+001
     450  -0.32957E+001  -0.13449E+001  -0.18441E+001   0.26450E+001  -0.15709E+000   0.16355E+001
     451   0.31032E+001   0.38850E+001  -0.33725E+001  -0.11788E+000  -0.70954E+000  -0.14353E+001
     452   0.67663E+000   0.54169E+001  -0.16088E+001  -0.63565E+000  -0.42489E+000  -0.24556E+001
     453  -0.17500E+001   0.69488E+001   0.15494E+000  -0.11534E+001   0.14144E-009   0.61093E-010
     454   0.67663E+000   0.54169E+001  -0.16088E+001  -0.63565E+000   0.42489E+000   0.24556E+001
     455   0.31032E+001   0.38850E+001  -0.33725E+001  -0.11788E+000   0.70954E+000   0.14353E+001
     456   0.11260E+002   0.73181E+001  -0.32475E+001  -0.61057E+000  -0.59956E+000  -0.13970E+001
     457   0.88833E+001   0.88496E+001  -0.20159E+001  -0.16119E+001  -0.43798E+000  -0.21331E+001
     458   0.65069E+001   0.10381E+002  -0.78431E+000  -0.26132E+001  -0.42422E-011   0.79078E-010
     459   0.88833E+001   0.88496E+001  -0.20159E+001  -0.16119E+001   0.43798E+000   0.21331E+001
     460   0.11260E+002   0.73181E+001  -0.32475E+001  -0.61057E+000   0.59956E+000   0.13970E+001
     461   0.23505E+002   0.12408E+002  -0.21214E+001   0.30908E+000  -0.76273E+000  -0.51443E-001
     462   0.22552E+002   0.13306E+002  -0.18792E+001  -0.89416E+000  -0.47460E+000  -0.22460E+000
     463   0.21598E+002   0.14205E+002  -0.16371E+001  -0.20974E+001   0.17064E-010   0.11274E-009
     464   0.22552E+002   0.13306E+002  -0.18792E+001  -0.89416E+000   0.47460E+000   0.22460E+000
     465   0.23505E+002   0.12408E+002  -0.21214E+001   0.30908E+000   0.76273E+000   0.51443E-001
     466   0.22754E+002   0.13934E+002  -0.19592E+001   0.12502E+001  -0.46580E+000   0.30067E+000
     467   0.22103E+002   0.14268E+002  -0.26646E+001   0.55734E+000  -0.21475E+000   0.35752E+000
     468   0.21453E+002   0.14602E+002  -0.33701E+001  -0.13553E+000   0.92938E-010  -0.47031E-010
     469   0.22103E+002   0.14268E+002  -0.26646E+001   0.55734E+000   0.21475E+000  -0.35752E+000
     470   0.22754E+002   0.13934E+002  -0.19592E+001   0.12502E+001   0.46580E+000  -0.30067E+000
     471   0.19959E+002   0.14632E+002  -0.22976E+001   0.20223E-010  -0.17639E-009  -0.88293E-003
     472   0.18924E+002   0.14717E+002  -0.37220E+001  -0.11973E-009   0.66641E-010   0.14663E+000
     473   0.17890E+002   0.14803E+002  -0.51463E+001  -0.33068E-009   0.10582E-009  -0.29289E-009
     474   0.18924E+002   0.14717E+002  -0.37220E+001  -0.38450E-009  -0.19262E-010  -0.14663E+000
     475   0.19959E+002   0.14632E+002  -0.22976E+001  -0.36733E-009   0.59517E-010   0.88293E-003
     476   0.22754E+002   0.13934E+002  -0.19592E+001  -0.12502E+001   0.46580E+000   0.30067E+000
     477   0.22103E+002   0.14268E+002  -0.26646E+001  -0.55734E+000   0.21475E+000   0.35752E+000
     478   0.21453E+002   0.14602E+002  -0.33701E+001   0.13553E+000   0.86298E-010  -0.29734E-009
     479   0.22103E+002   0.14268E+002  -0.26646E+001  -0.55734E+000  -0.21475E+000  -0.35752E+000
     480   0.22754E+002   0.13934E+002  -0.19592E+001  -0.12502E+001  -0.46580E+000  -0.30067E+000
     481   0.23505E+002   0.12408E+002  -0.21214E+001  -0.30908E+000   0.76273E+000  -0.51443E-001
     482   0.22552E+002   0.13306E+002  -0.18792E+001   0.89416E+000   0.47460E+000  -0.22460E+000
     483   0.21598E+002   0.14205E+002  -0.16371E+001   0.20974E+001   0.43034E-010  -0.12108E-009
     484   0.22552E+002   0.13306E+002  -0.18792E+001   0.89416E+000  -0.47460E+000   0.22460E+000
     485   0.23505E+002   0.12408E+002  -0.21214E+001  -0.30908E+000  -0.76273E+000   0.51443E-001
     486   0.11260E+002   0.73181E+001  -0.32475E+001   0.61057E+000   0.59956E+000  -0.13970E+001
     487   0.88833E+001   0.88496E+001  -0.20159E+001   0.16119E+001   0.43798E+000  -0.21331E+001
     488   0.65069E+001   0.10381E+002  -0.78431E+000   0.26132E+001  -0.35491E-010   0.36345E-010
     489   0.88833E+001   0.88496E+001  -0.20159E+001   0.16119E+001  -0.43798E+000   0.21331E+001
     490   0.11260E+002   0.73181E+001  -0.32475E+001   0.61057E+000  -0.59956E+000   0.13970E+001
     491   0.31032E+001   0.38850E+001  -0.33725E+001   0.11788E+000   0.70954E+000  -0.14353E+001
     492   0.67663E+000   0.54169E+001  -0.16088E+001   0.63565E+000   0.42489E+000  -0.24556E+001
     493  -0.17500E+001   0.69488E+001   0.15494E+000   0.11534E+001  -0.10752E-009  -0.11165E-010
     494   0.67663E+000   0.54169E+001  -0.16088E+001   0.63565E+000  -0.42489E+000   0.24556E+001
     495   0.31032E+001   0.38850E+001  -0.33725E+001   0.11788E+000  -0.70954E+000   0.14353E+001
     496   0.89380E+001   0.58516E+001  -0.16385E+001   0.23316E+000  -0.10401E+000   0.15437E+001
     497   0.91191E+001   0.59318E+001  -0.19856E+001   0.11820E+000   0.63648E-001   0.15616E+001
     498   0.93003E+001   0.60119E+001  -0.23327E+001   0.32290E-002   0.65843E-010   0.58849E-009
     499   0.91191E+001   0.59318E+001  -0.19856E+001   0.11820E+000  -0.63648E-001  -0.15616E+001
     500   0.89380E+001   0.58516E+001  -0.16385E+001   0.23316E+000   0.10401E+000  -0.15437E+001
     501   0.97578E+001   0.72956E+001  -0.71678E+000   0.32602E-010  -0.10515E-009   0.12604E+001
     502   0.93757E+001   0.68507E+001  -0.16320E+001  -0.10860E-009   0.29910E-010   0.13986E+001
     503   0.89936E+001   0.64058E+001  -0.25472E+001  -0.45774E-009   0.59435E-010   0.10432E-009
     504   0.93757E+001   0.68507E+001  -0.16320E+001  -0.55864E-009  -0.14259E-010  -0.13986E+001
     505   0.97578E+001   0.72956E+001  -0.71678E+000  -0.45161E-009   0.17585E-010  -0.12604E+001
     506   0.89380E+001   0.58516E+001  -0.16385E+001  -0.23316E+000   0.10401E+000   0.15437E+001
     507   0.91191E+001   0.59318E+001  -0.19856E+001  -0.11820E+000  -0.63648E-001   0.15616E+001
     508   0.93003E+001   0.60119E+001  -0.23327E+001  -0.32290E-002  -0.90372E-011  -0.69594E-011
     509   0.91191E+001   0.59318E+001  -0.19856E+001  -0.11820E+000   0.63648E-001  -0.15616E+001
     510   0.89380E+001   0.58516E+001  -0.16385E+001  -0.23316E+000  -0.10401E+000  -0.15437E+001
     511   0.81182E+001   0.44077E+001  -0.25602E+001   0.10685E+000  -0.28596E+000   0.18270E+001
     512   0.88626E+001   0.50129E+001  -0.23392E+001  -0.90509E-001  -0.45490E-001   0.17245E+001
     513   0.96070E+001   0.56180E+001  -0.21182E+001  -0.28787E+000  -0.26673E-011   0.86755E-009
     514   0.88626E+001   0.50129E+001  -0.23392E+001  -0.90509E-001   0.45490E-001  -0.17245E+001
     515   0.81182E+001   0.44077E+001  -0.25602E+001   0.10685E+000   0.28596E+000  -0.18270E+001
     516   0.81182E+001   0.44077E+001  -0.25602E+001  -0.10685E+000   0.28596E+000   0.18270E+001
     517   0.88626E+001   0.50129E+001  -0.23392E+001   0.90509E-001   0.45490E-001   0.17245E+001
     518   0.96070E+001   0.56180E+001  -0.21182E+001   0.28787E+000  -0.25914E-011   0.86874E-010
     519   0.88626E+001   0.50129E+001  -0.23392E+001   0.90509E-001  -0.45490E-001  -0.17245E+001
     520   0.81182E+001   0.44077E+001  -0.25602E+001  -0.10685E+000  -0.28596E+000  -0.18270E+001
     521  -0.12084E+002  -0.29969E+001  -0.25703E+001   0.16012E+001   0.10861E-001   0.96700E-001
     522  -0.11407E+002  -0.28380E+001  -0.29302E+001   0.15708E+001  -0.13543E-001   0.27906E-001
     523  -0.10730E+002  -0.26792E+001  -0.32901E+001   0.15404E+001  -0.55290E-011   0.43553E-009
     524  -0.11407E+002  -0.28380E+001  -0.29302E+001   0.15708E+001   0.13543E-001  -0.27906E-001
     525  -0.12084E+002  -0.29969E+001  -0.25703E+001   0.16012E+001  -0.10861E-001  -0.96700E-001
     526  -0.14731E+002  -0.24859E+001  -0.28645E+001   0.19165E+001   0.50391E-001   0.37311E-001
     527  -0.14246E+002  -0.24142E+001  -0.35289E+001   0.18852E+001   0.72486E-002  -0.31510E-001
     528  -0.13760E+002  -0.23425E+001  -0.41932E+001   0.18540E+001  -0.14698E-010   0.73939E-009
     529  -0.14246E+002  -0.24142E+001  -0.35289E+001   0.18852E+001  -0.72486E-002   0.31510E-001
     530  -0.14731E+002  -0.24859E+001  -0.28645E+001   0.19165E+001  -0.50391E-001  -0.37311E-001
     531  -0.94367E+001  -0.35078E+001  -0.22761E+001  -0.39475E-010   0.99624E-010   0.15609E+000
     532  -0.85685E+001  -0.32619E+001  -0.23316E+001  -0.30951E-010   0.20194E-010   0.87321E-001
     533  -0.77003E+001  -0.30159E+001  -0.23871E+001  -0.27738E-009  -0.23782E-010  -0.13269E-009
     534  -0.85685E+001  -0.32619E+001  -0.23316E+001  -0.65050E-009  -0.21148E-010  -0.87321E-001
     535  -0.94367E+001  -0.35078E+001  -0.22761E+001  -0.76866E-009  -0.53967E-010  -0.15609E+000
     536  -0.12084E+002  -0.29969E+001  -0.25703E+001  -0.16012E+001  -0.10861E-001   0.96700E-001
     537  -0.11407E+002  -0.28380E+001  -0.29302E+001  -0.15708E+001   0.13543E-001   0.27906E-001
     538  -0.10730E+002  -0.26792E+001  -0.32901E+001  -0.15404E+001  -0.24926E-010  -0.27504E-009
     539  -0.11407E+002  -0.28380E+001  -0.29302E+001  -0.15708E+001  -0.13543E-001  -0.27906E-001
     540  -0.12084E+002  -0.29969E+001  -0.25703E+001  -0.16012E+001   0.10861E-001  -0.96700E-001
     541  -0.14731E+002  -0.24859E+001  -0.28645E+001  -0.19165E+001  -0.50391E-001   0.37311E-001
     542  -0.14246E+002  -0.24142E+001  -0.35289E+001  -0.18852E+001  -0.72486E-002  -0.31510E-001
     543  -0.13760E+002  -0.23425E+001  -0.41932E+001  -0.18540E+001   0.13527E-011  -0.15301E-009
     544  -0.14246E+002  -0.24142E+001  -0.35289E+001  -0.18852E+001   0.72486E-002   0.31510E-001
     545  -0.14731E+002  -0.24859E+001  -0.28645E+001  -0.19165E+001   0.50391E-001  -0.37311E-001
     546  -0.36761E+002  -0.46439E+000  -0.77368E+000  -0.10577E+000   0.11287E-001  -0.28109E+000
     547  -0.36527E+002  -0.73601E+000  -0.20581E+001  -0.17797E+000  -0.28117E-001  -0.30034E+000
     548  -0.36294E+002  -0.10076E+001  -0.33426E+001  -0.25017E+000   0.72269E-010   0.24042E-009
     549  -0.36527E+002  -0.73601E+000  -0.20581E+001  -0.17797E+000   0.28117E-001   0.30034E+000
     550  -0.36761E+002  -0.46439E+000  -0.77368E+000  -0.10577E+000  -0.11287E-001   0.28109E+000
     551  -0.36257E+002  -0.11581E+001  -0.73186E+000   0.14034E+000   0.68562E-003  -0.27154E+000
     552  -0.36110E+002  -0.15803E+001  -0.20463E+001   0.57008E-001  -0.23661E-001  -0.34331E+000
     553  -0.35963E+002  -0.20025E+001  -0.33608E+001  -0.26329E-001  -0.30217E-010   0.60427E-010
     554  -0.36110E+002  -0.15803E+001  -0.20463E+001   0.57008E-001   0.23661E-001   0.34331E+000
     555  -0.36257E+002  -0.11581E+001  -0.73186E+000   0.14034E+000  -0.68562E-003   0.27154E+000
     556  -0.35754E+002  -0.18519E+001  -0.69003E+000  -0.14327E-009   0.37134E-010  -0.26200E+000
     557  -0.35693E+002  -0.24246E+001  -0.20346E+001  -0.14100E-009  -0.31178E-010  -0.38628E+000
     558  -0.35633E+002  -0.29973E+001  -0.33791E+001  -0.23115E-009  -0.98630E-010  -0.23234E-009
     559  -0.35693E+002  -0.24246E+001  -0.20346E+001  -0.42192E-009  -0.19607E-010   0.38628E+000
     560  -0.35754E+002  -0.18519E+001  -0.69003E+000  -0.52028E-009   0.58557E-010   0.26200E+000
     561  -0.36257E+002  -0.11581E+001  -0.73186E+000  -0.14034E+000  -0.68562E-003  -0.27154E+000
     562  -0.36110E+002  -0.15803E+001  -0.20463E+001  -0.57008E-001   0.23661E-001  -0.34331E+000
     563  -0.35963E+002  -0.20025E+001  -0.33608E+001   0.26329E-001  -0.71163E-010  -0.32375E-009
     564  -0.36110E+002  -0.15803E+001  -0.20463E+001  -0.57008E-001  -0.23661E-001   0.34331E+000
     565  -0.36257E+002  -0.11581E+001  -0.73186E+000  -0.14034E+000   0.68562E-003   0.27154E+000
     566  -0.36761E+002  -0.46439E+000  -0.77368E+000   0.10577E+000  -0.11287E-001  -0.28109E+000
     567  -0.36527E+002  -0.73601E+000  -0.20581E+001   0.17797E+000   0.28117E-001  -0.30034E+000
     568  -0.36294E+002  -0.10076E+001  -0.33426E+001   0.25017E+000  -0.77769E-010  -0.30239E-009
     569  -0.36527E+002  -0.73601E+000  -0.20581E+001   0.17797E+000  -0.28117E-001   0.30034E+000
     570  -0.36761E+002  -0.46439E+000  -0.77368E+000   0.10577E+000   0.11287E-001   0.28109E+000
     571  -0.70360E+002   0.13448E+001   0.12685E+001  -0.18929E-009  -0.28452E-010  -0.32180E+000
     572  -0.70815E+002   0.58177E+000  -0.34977E-001  -0.20123E-009  -0.34592E-010  -0.11132E+000
     573  -0.71270E+002  -0.18123E+000  -0.13385E+001  -0.13059E-009  -0.55269E-010  -0.18430E-009
     574  -0.70815E+002   0.58177E+000  -0.34977E-001   0.22812E-011  -0.24840E-010   0.11132E+000
     575  -0.70360E+002   0.13448E+001   0.12685E+001   0.52578E-010   0.20125E-010   0.32180E+000
     576  -0.71625E+002  -0.55399E+000  -0.39610E+000  -0.28059E+000  -0.47679E-001  -0.27800E+000
     577  -0.71553E+002  -0.57109E+000  -0.97233E+000  -0.21857E+000  -0.94728E-003  -0.10007E+000
     578  -0.71480E+002  -0.58820E+000  -0.15486E+001  -0.15654E+000   0.16896E-010  -0.99286E-010
     579  -0.71553E+002  -0.57109E+000  -0.97233E+000  -0.21857E+000   0.94728E-003   0.10007E+000
     580  -0.71625E+002  -0.55399E+000  -0.39610E+000  -0.28059E+000   0.47679E-001   0.27800E+000
     581  -0.70993E+002   0.39539E+000   0.43623E+000  -0.29044E+000  -0.46862E-002  -0.29990E+000
     582  -0.71184E+002   0.53420E-002  -0.50365E+000  -0.23712E+000   0.34048E-001  -0.10569E+000
     583  -0.71375E+002  -0.38471E+000  -0.14435E+001  -0.18381E+000  -0.12308E-010  -0.17099E-009
     584  -0.71184E+002   0.53420E-002  -0.50365E+000  -0.23712E+000  -0.34048E-001   0.10569E+000
     585  -0.70993E+002   0.39539E+000   0.43623E+000  -0.29044E+000   0.46862E-002   0.29990E+000
     586  -0.70993E+002   0.39539E+000   0.43623E+000   0.29044E+000   0.46862E-002  -0.29990E+000
     587  -0.71184E+002   0.53420E-002  -0.50365E+000   0.23712E+000  -0.34048E-001  -0.10569E+000
     588  -0.71375E+002  -0.38471E+000  -0.14435E+001   0.18381E+000  -0.68067E-010  -0.16383E-009
     589  -0.71184E+002   0.53420E-002  -0.50365E+000   0.23712E+000   0.34048E-001   0.10569E+000
     590  -0.70993E+002   0.39539E+000   0.43623E+000   0.29044E+000  -0.46862E-002   0.29990E+000
     591  -0.71625E+002  -0.55399E+000  -0.39610E+000   0.28059E+000   0.47679E-001  -0.27800E+000
     592  -0.71553E+002  -0.57109E+000  -0.97233E+000   0.21857E+000   0.94728E-003  -0.10007E+000
     593  -0.71480E+002  -0.58820E+000  -0.15486E+001   0.15654E+000  -0.67108E-010  -0.20176E-009
     594  -0.71553E+002  -0.57109E+000  -0.97233E+000   0.21857E+000  -0.94728E-003   0.10007E+000
     595  -0.71625E+002  -0.55399E+000  -0.39610E+000   0.28059E+000  -0.47679E-001   0.27800E+000
     596  -0.10741E+003   0.16984E+001   0.12650E+001  -0.16687E+000   0.38851E-001  -0.25965E+000
     597  -0.10813E+003   0.12606E+001   0.13425E+001  -0.14853E+000  -0.60004E-002  -0.23464E+000
     598  -0.10884E+003   0.82274E+000   0.14201E+001  -0.13019E+000  -0.73024E-010  -0.16579E-009
     599  -0.10813E+003   0.12606E+001   0.13425E+001  -0.14853E+000   0.60004E-002   0.23464E+000
     600  -0.10741E+003   0.16984E+001   0.12650E+001  -0.16687E+000  -0.38851E-001   0.25965E+000
     601  -0.10830E+003   0.14861E+001   0.61192E+000  -0.13984E+000   0.42507E-002  -0.27157E+000
     602  -0.10873E+003   0.14457E+001   0.11361E+001  -0.96305E-001  -0.41899E-001  -0.21707E+000
     603  -0.10915E+003   0.14053E+001   0.16602E+001  -0.52767E-001  -0.31286E-010  -0.22878E-009
     604  -0.10873E+003   0.14457E+001   0.11361E+001  -0.96305E-001   0.41899E-001   0.21707E+000
     605  -0.10830E+003   0.14861E+001   0.61192E+000  -0.13984E+000  -0.42507E-002   0.27157E+000
     606  -0.10920E+003   0.12737E+001  -0.41118E-001  -0.91585E-010   0.43059E-011  -0.28349E+000
     607  -0.10933E+003   0.16308E+001   0.92957E+000  -0.66940E-010   0.62587E-011  -0.19950E+000
     608  -0.10945E+003   0.19878E+001   0.19003E+001   0.37832E-010   0.28973E-011  -0.21310E-009
     609  -0.10933E+003   0.16308E+001   0.92957E+000   0.13167E-009  -0.15719E-010   0.19950E+000
     610  -0.10920E+003   0.12737E+001  -0.41118E-001   0.14538E-009  -0.29022E-010   0.28349E+000
     611  -0.10830E+003   0.14861E+001   0.61192E+000   0.13984E+000  -0.42507E-002  -0.27157E+000
     612  -0.10873E+003   0.14457E+001   0.11361E+001   0.96305E-001   0.41899E-001  -0.21707E+000
     613  -0.10915E+003   0.14053E+001   0.16602E+001   0.52767E-001  -0.15144E-010  -0.12561E-009
     614  -0.10873E+003   0.14457E+001   0.11361E+001   0.96305E-001  -0.41899E-001   0.21707E+000
     615  -0.10830E+003   0.14861E+001   0.61192E+000   0.13984E+000   0.42507E-002   0.27157E+000
     616  -0.10741E+003   0.16984E+001   0.12650E+001   0.16687E+000  -0.38851E-001  -0.25965E+000
     617  -0.10813E+003   0.12606E+001   0.13425E+001   0.14853E+000   0.60004E-002  -0.23464E+000
     618  -0.10884E+003   0.82274E+000   0.14201E+001   0.13019E+000  -0.25630E-010  -0.11679E-009
     619  -0.10813E+003   0.12606E+001   0.13425E+001   0.14853E+000  -0.60004E-002   0.23464E+000
     620  -0.10741E+003   0.16984E+001   0.12650E+001   0.16687E+000   0.38851E-001   0.25965E+000
     621  -0.13093E+003   0.15021E+001   0.16528E+001  -0.56463E-001  -0.29752E-001  -0.17668E+000
     622  -0.13220E+003   0.11466E+001   0.22684E+001  -0.67944E-001  -0.17670E-001  -0.13543E+000
     623  -0.13348E+003   0.79116E+000   0.28841E+001  -0.79424E-001  -0.24292E-010  -0.65982E-010
     624  -0.13220E+003   0.11466E+001   0.22684E+001  -0.67944E-001   0.17670E-001   0.13543E+000
     625  -0.13093E+003   0.15021E+001   0.16528E+001  -0.56463E-001   0.29752E-001   0.17668E+000
     626  -0.13191E+003   0.23473E+001   0.14884E+001  -0.12558E-002  -0.33296E-001  -0.16703E+000
     627  -0.13304E+003   0.22256E+001   0.23061E+001  -0.36414E-001  -0.38015E-001  -0.16355E+000
     628  -0.13418E+003   0.21039E+001   0.31238E+001  -0.71572E-001  -0.17248E-010  -0.10449E-009
     629  -0.13304E+003   0.22256E+001   0.23061E+001  -0.36414E-001   0.38015E-001   0.16355E+000
     630  -0.13191E+003   0.23473E+001   0.14884E+001  -0.12558E-002   0.33296E-001   0.16703E+000
     631  -0.13289E+003   0.31924E+001   0.13239E+001   0.66360E-011   0.52686E-010  -0.15737E+000
     632  -0.13388E+003   0.33046E+001   0.23437E+001   0.38515E-010   0.42410E-010  -0.19166E+000
     633  -0.13488E+003   0.34167E+001   0.33636E+001   0.84005E-010   0.14162E-010  -0.12011E-009
     634  -0.13388E+003   0.33046E+001   0.23437E+001   0.53343E-010  -0.68297E-011   0.19166E+000
     635  -0.13289E+003   0.31924E+001   0.13239E+001   0.90706E-011  -0.98496E-011   0.15737E+000
     636  -0.13191E+003   0.23473E+001   0.14884E+001   0.12558E-002   0.33296E-001  -0.16703E+000
     637  -0.13304E+003   0.22256E+001   0.23061E+001   0.36414E-001   0.38015E-001  -0.16355E+000
     638  -0.13418E+003   0.21039E+001   0.31238E+001   0.71572E-001   0.13029E-010  -0.41985E-010
     639  -0.13304E+003   0.22256E+001   0.23061E+001   0.36414E-001  -0.38015E-001   0.16355E+000
     640  -0.13191E+003   0.23473E+001   0.14884E+001   0.12558E-002  -0.33296E-001   0.16703E+000
     641  -0.13093E+003   0.15021E+001   0.16528E+001   0.56463E-001   0.29752E-001  -0.17668E+000
     642  -0.13220E+003   0.11466E+001   0.22684E+001   0.67944E-001   0.17670E-001  -0.13543E+000
     643  -0.13348E+003   0.79116E+000   0.28841E+001   0.79424E-001  -0.12471E-010   0.13252E-010
     644  -0.13220E+003   0.11466E+001   0.22684E+001   0.67944E-001  -0.17670E-001   0.13543E+000
     645  -0.13093E+003   0.15021E+001   0.16528E+001   0.56463E-001  -0.29752E-001   0.17668E+000
     646  -0.13646E+003   0.29554E+001   0.10846E+001   0.54876E-010   0.21834E-010   0.11396E+000
     647  -0.13729E+003   0.28850E+001   0.19985E+001   0.52883E-010   0.19753E-010   0.12239E+000
     648  -0.13812E+003   0.28146E+001   0.29124E+001   0.52549E-010   0.79873E-011  -0.75009E-010
     649  -0.13729E+003   0.28850E+001   0.19985E+001   0.43768E-010  -0.50043E-012  -0.12239E+000
     650  -0.13646E+003   0.29554E+001   0.10846E+001   0.33328E-010   0.69649E-012  -0.11396E+000
     651  -0.13585E+003  -0.22984E+000  -0.20376E+000   0.12864E+000  -0.12341E+000   0.14265E+000
     652  -0.13615E+003   0.47517E+000   0.14711E+001   0.13862E+000  -0.42970E-001   0.12785E+000
     653  -0.13645E+003   0.11802E+001   0.31459E+001   0.14861E+000   0.19669E-011  -0.17581E-010
     654  -0.13615E+003   0.47517E+000   0.14711E+001   0.13862E+000   0.42970E-001  -0.12785E+000
     655  -0.13585E+003  -0.22984E+000  -0.20376E+000   0.12864E+000   0.12341E+000  -0.14265E+000
     656  -0.13615E+003   0.13628E+001   0.44044E+000   0.73830E-001  -0.37546E-001   0.12831E+000
     657  -0.13672E+003   0.16801E+001   0.17348E+001   0.75724E-001   0.14160E-001   0.12512E+000
     658  -0.13729E+003   0.19974E+001   0.30292E+001   0.77618E-001  -0.10722E-011  -0.49318E-010
     659  -0.13672E+003   0.16801E+001   0.17348E+001   0.75724E-001  -0.14160E-001  -0.12512E+000
     660  -0.13615E+003   0.13628E+001   0.44044E+000   0.73830E-001   0.37546E-001  -0.12831E+000
     661  -0.13615E+003   0.13628E+001   0.44044E+000  -0.73830E-001   0.37546E-001   0.12831E+000
     662  -0.13672E+003   0.16801E+001   0.17348E+001  -0.75724E-001  -0.14160E-001   0.12512E+000
     663  -0.13729E+003   0.19974E+001   0.30292E+001  -0.77618E-001   0.11105E-010   0.35081E-012
     664  -0.13672E+003   0.16801E+001   0.17348E+001  -0.75724E-001   0.14160E-001  -0.12512E+000
     665  -0.13615E+003   0.13628E+001   0.44044E+000  -0.73830E-001  -0.37546E-001  -0.12831E+000
     666  -0.13585E+003  -0.22984E+000  -0.20376E+000  -0.12864E+000   0.12341E+000   0.14265E+000
     667  -0.13615E+003   0.47517E+000   0.14711E+001  -0.13862E+000   0.42970E-001   0.12785E+000
     668  -0.13645E+003   0.11802E+001   0.31459E+001  -0.14861E+000   0.21245E-011   0.69665E-010
     669  -0.13615E+003   0.47517E+000   0.14711E+001  -0.13862E+000  -0.42970E-001  -0.12785E+000
     670  -0.13585E+003  -0.22984E+000  -0.20376E+000  -0.12864E+000  -0.12341E+000  -0.14265E+000
     671  -0.12377E+003   0.61665E-001  -0.40585E+000   0.72569E-010  -0.14573E-010   0.30679E+000
     672  -0.12369E+003   0.25840E+000   0.16098E+000   0.45095E-010  -0.98604E-011   0.22014E+000
     673  -0.12361E+003   0.45513E+000   0.72780E+000   0.17832E-010  -0.59189E-011  -0.42646E-010
     674  -0.12369E+003   0.25840E+000   0.16098E+000   0.33963E-010  -0.29850E-011  -0.22014E+000
     675  -0.12377E+003   0.61665E-001  -0.40585E+000   0.49882E-010   0.71966E-012  -0.30679E+000
     676  -0.12287E+003   0.67222E+000   0.25872E+000   0.30801E+000   0.65630E-002   0.29638E+000
     677  -0.12290E+003   0.80756E+000   0.64691E+000   0.29944E+000  -0.10224E-001   0.18182E+000
     678  -0.12293E+003   0.94291E+000   0.10351E+001   0.29088E+000  -0.17686E-010   0.71403E-012
     679  -0.12290E+003   0.80756E+000   0.64691E+000   0.29944E+000   0.10224E-001  -0.18182E+000
     680  -0.12287E+003   0.67222E+000   0.25872E+000   0.30801E+000  -0.65630E-002  -0.29638E+000
     681  -0.12332E+003   0.36694E+000  -0.73569E-001   0.20972E+000   0.20849E-001   0.30158E+000
     682  -0.12329E+003   0.53298E+000   0.40394E+000   0.22332E+000   0.63180E-003   0.20098E+000
     683  -0.12327E+003   0.69902E+000   0.88145E+000   0.23692E+000  -0.14570E-010  -0.22070E-010
     684  -0.12329E+003   0.53298E+000   0.40394E+000   0.22332E+000  -0.63180E-003  -0.20098E+000
     685  -0.12332E+003   0.36694E+000  -0.73569E-001   0.20972E+000  -0.20849E-001  -0.30158E+000
     686  -0.12332E+003   0.36694E+000  -0.73569E-001  -0.20972E+000  -0.20849E-001   0.30158E+000
     687  -0.12329E+003   0.53298E+000   0.40394E+000  -0.22332E+000  -0.63180E-003   0.20098E+000
     688  -0.12327E+003   0.69902E+000   0.88145E+000  -0.23692E+000   0.43060E-011  -0.82156E-011
     689  -0.12329E+003   0.53298E+000   0.40394E+000  -0.22332E+000   0.63180E-003  -0.20098E+000
     690  -0.12332E+003   0.36694E+000  -0.73569E-001  -0.20972E+000   0.20849E-001  -0.30158E+000
     691  -0.12287E+003   0.67222E+000   0.25872E+000  -0.30801E+000  -0.65630E-002   0.29638E+000
     692  -0.12290E+003   0.80756E+000   0.64691E+000  -0.29944E+000   0.10224E-001   0.18182E+000
     693  -0.12293E+003   0.94291E+000   0.10351E+001  -0.29088E+000   0.89960E-011   0.24007E-010
     694  -0.12290E+003   0.80756E+000   0.64691E+000  -0.29944E+000  -0.10224E-001  -0.18182E+000
     695  -0.12287E+003   0.67222E+000   0.25872E+000  -0.30801E+000   0.65630E-002  -0.29638E+000
     696  -0.10672E+003  -0.19766E+000  -0.11467E+000   0.22131E+000   0.60900E-001   0.20493E+000
     697  -0.10644E+003  -0.51171E+000  -0.10430E+001   0.21692E+000   0.26845E-001   0.17096E+000
     698  -0.10617E+003  -0.82576E+000  -0.19713E+001   0.21254E+000  -0.10641E-010   0.25837E-011
     699  -0.10644E+003  -0.51171E+000  -0.10430E+001   0.21692E+000  -0.26845E-001  -0.17096E+000
     700  -0.10672E+003  -0.19766E+000  -0.11467E+000   0.22131E+000  -0.60900E-001  -0.20493E+000
     701  -0.10633E+003  -0.96624E+000  -0.31275E+000   0.21032E+000   0.19465E-001   0.21329E+000
     702  -0.10597E+003  -0.11392E+001  -0.11145E+001   0.19716E+000   0.94452E-003   0.16172E+000
     703  -0.10560E+003  -0.13122E+001  -0.19162E+001   0.18401E+000  -0.13354E-010   0.21106E-011
     704  -0.10597E+003  -0.11392E+001  -0.11145E+001   0.19716E+000  -0.94452E-003  -0.16172E+000
     705  -0.10633E+003  -0.96624E+000  -0.31275E+000   0.21032E+000  -0.19465E-001  -0.21329E+000
     706  -0.10594E+003  -0.17348E+001  -0.51083E+000   0.34312E-010  -0.23201E-011   0.22166E+000
     707  -0.10549E+003  -0.17667E+001  -0.11860E+001   0.20605E-010  -0.61452E-011   0.15247E+000
     708  -0.10504E+003  -0.17986E+001  -0.18612E+001   0.79484E-011  -0.76583E-011   0.15859E-011
     709  -0.10549E+003  -0.17667E+001  -0.11860E+001   0.18481E-010  -0.42628E-011  -0.15247E+000
     710  -0.10594E+003  -0.17348E+001  -0.51083E+000   0.27963E-010  -0.31794E-011  -0.22166E+000
     711  -0.10633E+003  -0.96624E+000  -0.31275E+000  -0.21032E+000  -0.19465E-001   0.21329E+000
     712  -0.10597E+003  -0.11392E+001  -0.11145E+001  -0.19716E+000  -0.94452E-003   0.16172E+000
     713  -0.10560E+003  -0.13122E+001  -0.19162E+001  -0.18401E+000   0.40257E-011  -0.26450E-011
     714  -0.10597E+003  -0.11392E+001  -0.11145E+001  -0.19716E+000   0.94452E-003  -0.16172E+000
     715  -0.10633E+003  -0.96624E+000  -0.31275E+000  -0.21032E+000   0.19465E-001  -0.21329E+000
     716  -0.10672E+003  -0.19766E+000  -0.11467E+000  -0.22131E+000  -0.60900E-001   0.20493E+000
     717  -0.10644E+003  -0.51171E+000  -0.10430E+001  -0.21692E+000  -0.26845E-001   0.17096E+000
     718  -0.10617E+003  -0.82576E+000  -0.19713E+001  -0.21254E+000   0.73010E-011  -0.68243E-011
     719  -0.10644E+003  -0.51171E+000  -0.10430E+001  -0.21692E+000   0.26845E-001  -0.17096E+000
     720  -0.10672E+003  -0.19766E+000  -0.11467E+000  -0.22131E+000   0.60900E-001  -0.20493E+000
     721  -0.10017E+003  -0.16868E+001  -0.13377E+001   0.11249E+000   0.20079E-001   0.13599E+000
     722  -0.99329E+002  -0.16388E+001  -0.21506E+001   0.12182E+000   0.22104E-001   0.15741E+000
     723  -0.98490E+002  -0.15909E+001  -0.29635E+001   0.13115E+000   0.33954E-012   0.87255E-011
     724  -0.99329E+002  -0.16388E+001  -0.21506E+001   0.12182E+000  -0.22104E-001  -0.15741E+000
     725  -0.10017E+003  -0.16868E+001  -0.13377E+001   0.11249E+000  -0.20079E-001  -0.13599E+000
     726  -0.99069E+002  -0.19707E+001  -0.94760E+000   0.11702E+000  -0.23505E-002   0.12613E+000
     727  -0.98335E+002  -0.20430E+001  -0.19270E+001   0.10264E+000   0.16235E-001   0.13583E+000
     728  -0.97601E+002  -0.21153E+001  -0.29064E+001   0.88257E-001  -0.45319E-011   0.15355E-010
     729  -0.98335E+002  -0.20430E+001  -0.19270E+001   0.10264E+000  -0.16235E-001  -0.13583E+000
     730  -0.99069E+002  -0.19707E+001  -0.94760E+000   0.11702E+000   0.23505E-002  -0.12613E+000
     731  -0.97971E+002  -0.22546E+001  -0.55745E+000   0.15134E-010   0.95400E-011   0.11626E+000
     732  -0.97341E+002  -0.24472E+001  -0.17033E+001   0.10425E-010   0.17165E-011   0.11424E+000
     733  -0.96711E+002  -0.26397E+001  -0.28492E+001   0.42940E-011  -0.31720E-011   0.20593E-010
     734  -0.97341E+002  -0.24472E+001  -0.17033E+001   0.11236E-010  -0.15962E-011  -0.11424E+000
     735  -0.97971E+002  -0.22546E+001  -0.55745E+000   0.19600E-010  -0.29554E-011  -0.11626E+000
     736  -0.99069E+002  -0.19707E+001  -0.94760E+000  -0.11702E+000   0.23505E-002   0.12613E+000
     737  -0.98335E+002  -0.20430E+001  -0.19270E+001  -0.10264E+000  -0.16235E-001   0.13583E+000
     738  -0.97601E+002  -0.21153E+001  -0.29064E+001  -0.88257E-001   0.17164E-011   0.97976E-011
     739  -0.98335E+002  -0.20430E+001  -0.19270E+001  -0.10264E+000   0.16235E-001  -0.13583E+000
     740  -0.99069E+002  -0.19707E+001  -0.94760E+000  -0.11702E+000  -0.23505E-002  -0.12613E+000
     741  -0.10017E+003  -0.16868E+001  -0.13377E+001  -0.11249E+000  -0.20079E-001   0.13599E+000
     742  -0.99329E+002  -0.16388E+001  -0.21506E+001  -0.12182E+000  -0.22104E-001   0.15741E+000
     743  -0.98490E+002  -0.15909E+001  -0.29635E+001  -0.13115E+000   0.37340E-012   0.39269E-012
     744  -0.99329E+002  -0.16388E+001  -0.21506E+001  -0.12182E+000   0.22104E-001  -0.15741E+000
     745  -0.10017E+003  -0.16868E+001  -0.13377E+001  -0.11249E+000   0.20079E-001  -0.13599E+000
