    NODE   SXX         SYY         SZZ         SXY         SYZ         SZX  
       1  -0.28806E+001   0.83588E+001  -0.10426E-001   0.54871E+001   0.12161E+001  -0.19356E+001
       2   0.37232E+000   0.44648E+001  -0.13218E+001   0.29403E+001   0.38529E+001   0.43149E+001
       3   0.36252E+001   0.57081E+000  -0.26332E+001   0.39358E+000  -0.23446E-010   0.14147E-009
       4   0.37232E+000   0.44648E+001  -0.13218E+001   0.29403E+001  -0.38529E+001  -0.43149E+001
       5  -0.28806E+001   0.83588E+001  -0.10426E-001   0.54871E+001  -0.12161E+001   0.19356E+001
       6  -0.12529E+001   0.14648E+002  -0.34447E+001   0.89450E+001   0.40205E+001  -0.25126E+001
       7   0.14140E+001   0.11911E+002  -0.45673E+001   0.65137E+001   0.57931E+001   0.27755E+001
       8   0.40808E+001   0.91747E+001  -0.56898E+001   0.40825E+001   0.99225E-010   0.16396E-009
       9   0.14140E+001   0.11911E+002  -0.45673E+001   0.65137E+001  -0.57931E+001  -0.27755E+001
      10  -0.12529E+001   0.14648E+002  -0.34447E+001   0.89450E+001  -0.40205E+001   0.25126E+001
      11  -0.21753E+000   0.25377E+002  -0.60301E+001   0.98315E+001   0.50544E+001  -0.34891E+001
      12   0.10819E+001   0.25957E+002  -0.98289E+001   0.90760E+001   0.46426E+001   0.81600E+000
      13   0.23814E+001   0.26536E+002  -0.13628E+002   0.83205E+001   0.71971E-010   0.22215E-009
      14   0.10819E+001   0.25957E+002  -0.98289E+001   0.90760E+001  -0.46426E+001  -0.81600E+000
      15  -0.21753E+000   0.25377E+002  -0.60301E+001   0.98315E+001  -0.50544E+001   0.34891E+001
      16  -0.33287E+000   0.36575E+002  -0.54786E+001   0.55448E+001   0.10203E+001  -0.42219E+001
      17  -0.73699E+000   0.35319E+002  -0.10616E+002   0.59330E+001  -0.27194E+000   0.11357E+000
      18  -0.11411E+001   0.34064E+002  -0.15753E+002   0.63212E+001  -0.32284E-009   0.20283E-009
      19  -0.73699E+000   0.35319E+002  -0.10616E+002   0.59330E+001   0.27194E+000  -0.11357E+000
      20  -0.33287E+000   0.36575E+002  -0.54786E+001   0.55448E+001  -0.10203E+001   0.42219E+001
      21   0.14412E+000   0.43333E+002  -0.57762E+001   0.27362E-009  -0.28216E-009  -0.45552E+001
      22  -0.11822E+001   0.38084E+002  -0.93865E+001   0.67985E-010  -0.56580E-009  -0.16870E+000
      23  -0.25085E+001   0.32834E+002  -0.12997E+002  -0.25559E-009  -0.55250E-009   0.15854E-010
      24  -0.11822E+001   0.38084E+002  -0.93865E+001  -0.22908E-009  -0.21282E-010   0.16870E+000
      25   0.14412E+000   0.43333E+002  -0.57762E+001  -0.84625E-010   0.21300E-009   0.45552E+001
      26  -0.33287E+000   0.36575E+002  -0.54786E+001  -0.55448E+001  -0.10203E+001  -0.42219E+001
      27  -0.73699E+000   0.35319E+002  -0.10616E+002  -0.59330E+001   0.27194E+000   0.11357E+000
      28  -0.11411E+001   0.34064E+002  -0.15753E+002  -0.63212E+001  -0.24237E-009  -0.10783E-009
      29  -0.73699E+000   0.35319E+002  -0.10616E+002  -0.59330E+001  -0.27194E+000  -0.11357E+000
      30  -0.33287E+000   0.36575E+002  -0.54786E+001  -0.55448E+001   0.10203E+001   0.42219E+001
      31  -0.21753E+000   0.25377E+002  -0.60301E+001  -0.98315E+001  -0.50544E+001  -0.34891E+001
      32   0.10819E+001   0.25957E+002  -0.98289E+001  -0.90760E+001  -0.46426E+001   0.81600E+000
      33   0.23814E+001   0.26536E+002  -0.13628E+002  -0.83205E+001   0.14841E-009  -0.12012E-009
      34   0.10819E+001   0.25957E+002  -0.98289E+001  -0.90760E+001   0.46426E+001  -0.81600E+000
      35  -0.21753E+000   0.25377E+002  -0.60301E+001  -0.98315E+001   0.50544E+001   0.34891E+001
      36  -0.12529E+001   0.14648E+002  -0.34447E+001  -0.89450E+001  -0.40205E+001  -0.25126E+001
      37   0.14140E+001   0.11911E+002  -0.45673E+001  -0.65137E+001  -0.57931E+001   0.27755E+001
      38   0.40808E+001   0.91747E+001  -0.56898E+001  -0.40825E+001   0.20667E-009  -0.20738E-009
      39   0.14140E+001   0.11911E+002  -0.45673E+001  -0.65137E+001   0.57931E+001  -0.27755E+001
      40  -0.12529E+001   0.14648E+002  -0.34447E+001  -0.89450E+001   0.40205E+001   0.25126E+001
      41  -0.28806E+001   0.83588E+001  -0.10426E-001  -0.54871E+001  -0.12161E+001  -0.19356E+001
      42   0.37232E+000   0.44648E+001  -0.13218E+001  -0.29403E+001  -0.38529E+001   0.43149E+001
      43   0.36252E+001   0.57081E+000  -0.26332E+001  -0.39358E+000   0.16907E-009  -0.27407E-009
      44   0.37232E+000   0.44648E+001  -0.13218E+001  -0.29403E+001   0.38529E+001  -0.43149E+001
      45  -0.28806E+001   0.83588E+001  -0.10426E-001  -0.54871E+001   0.12161E+001   0.19356E+001
      46  -0.66766E+001   0.64650E+001   0.20862E+001   0.44155E+001   0.30678E+001  -0.22051E+001
      47  -0.32836E+001   0.38531E+001   0.11147E+001   0.30301E+001   0.34459E+001   0.36155E+000
      48   0.10954E+000   0.12412E+001   0.14317E+000   0.16447E+001   0.29988E-010  -0.12045E-009
      49  -0.32836E+001   0.38531E+001   0.11147E+001   0.30301E+001  -0.34459E+001  -0.36155E+000
      50  -0.66766E+001   0.64650E+001   0.20862E+001   0.44155E+001  -0.30678E+001   0.22051E+001
      51   0.60709E+000   0.20977E+002   0.98761E-001   0.10703E+002   0.52438E+001   0.62208E-001
      52   0.28407E+001   0.21703E+002  -0.22700E+001   0.10395E+002   0.38761E+001  -0.85468E-002
      53   0.50743E+001   0.22430E+002  -0.46387E+001   0.10087E+002   0.11651E-009   0.97103E-010
      54   0.28407E+001   0.21703E+002  -0.22700E+001   0.10395E+002  -0.38761E+001   0.85468E-002
      55   0.60709E+000   0.20977E+002   0.98761E-001   0.10703E+002  -0.52438E+001  -0.62208E-001
      56   0.60709E+000   0.20977E+002   0.98761E-001  -0.10703E+002  -0.52438E+001   0.62208E-001
      57   0.28407E+001   0.21703E+002  -0.22700E+001  -0.10395E+002  -0.38761E+001  -0.85468E-002
      58   0.50743E+001   0.22430E+002  -0.46387E+001  -0.10087E+002   0.48097E-010  -0.61816E-010
      59   0.28407E+001   0.21703E+002  -0.22700E+001  -0.10395E+002   0.38761E+001   0.85468E-002
      60   0.60709E+000   0.20977E+002   0.98761E-001  -0.10703E+002   0.52438E+001  -0.62208E-001
      61  -0.66766E+001   0.64650E+001   0.20862E+001  -0.44155E+001  -0.30678E+001  -0.22051E+001
      62  -0.32836E+001   0.38531E+001   0.11147E+001  -0.30301E+001  -0.34459E+001   0.36155E+000
      63   0.10954E+000   0.12412E+001   0.14317E+000  -0.16447E+001   0.13639E-009  -0.18633E-009
      64  -0.32836E+001   0.38531E+001   0.11147E+001  -0.30301E+001   0.34459E+001  -0.36155E+000
      65  -0.66766E+001   0.64650E+001   0.20862E+001  -0.44155E+001   0.30678E+001   0.22051E+001
      66  -0.33868E+001   0.11825E+002   0.76669E+000   0.82085E+001   0.49158E+001  -0.16363E+001
      67  -0.36466E+000   0.10252E+002  -0.74189E-001   0.68767E+001   0.47877E+001  -0.11609E+000
      68   0.26575E+001   0.86799E+001  -0.91507E+000   0.55449E+001   0.10701E-009  -0.45592E-010
      69  -0.36466E+000   0.10252E+002  -0.74189E-001   0.68767E+001  -0.47877E+001   0.11609E+000
      70  -0.33868E+001   0.11825E+002   0.76669E+000   0.82085E+001  -0.49158E+001   0.16363E+001
      71   0.20208E+001   0.29475E+002   0.98109E+000   0.63561E+001   0.13198E+001   0.16518E+001
      72   0.32045E+001   0.28711E+002  -0.18599E+001   0.66770E+001  -0.14017E+000   0.86592E+000
      73   0.43881E+001   0.27947E+002  -0.47008E+001   0.69979E+001  -0.14800E-009   0.10751E-009
      74   0.32045E+001   0.28711E+002  -0.18599E+001   0.66770E+001   0.14017E+000  -0.86592E+000
      75   0.20208E+001   0.29475E+002   0.98109E+000   0.63561E+001  -0.13198E+001  -0.16518E+001
      76   0.27304E+001   0.34182E+002   0.12119E+001  -0.20559E-009  -0.21657E-009   0.21118E+001
      77   0.32818E+001   0.30667E+002  -0.44284E+000  -0.20290E-009  -0.34268E-009   0.11552E+001
      78   0.38332E+001   0.27153E+002  -0.20975E+001  -0.23967E-009  -0.29722E-009  -0.25894E-010
      79   0.32818E+001   0.30667E+002  -0.44284E+000  -0.12923E-009  -0.56637E-010  -0.11552E+001
      80   0.27304E+001   0.34182E+002   0.12119E+001   0.20668E-010   0.12374E-010  -0.21118E+001
      81   0.20208E+001   0.29475E+002   0.98109E+000  -0.63561E+001  -0.13198E+001   0.16518E+001
      82   0.32045E+001   0.28711E+002  -0.18599E+001  -0.66770E+001   0.14017E+000   0.86592E+000
      83   0.43881E+001   0.27947E+002  -0.47008E+001  -0.69979E+001  -0.14604E-009  -0.93717E-010
      84   0.32045E+001   0.28711E+002  -0.18599E+001  -0.66770E+001  -0.14017E+000  -0.86592E+000
      85   0.20208E+001   0.29475E+002   0.98109E+000  -0.63561E+001   0.13198E+001  -0.16518E+001
      86  -0.33868E+001   0.11825E+002   0.76669E+000  -0.82085E+001  -0.49158E+001  -0.16363E+001
      87  -0.36466E+000   0.10252E+002  -0.74189E-001  -0.68767E+001  -0.47877E+001  -0.11609E+000
      88   0.26575E+001   0.86799E+001  -0.91507E+000  -0.55449E+001   0.13762E-009  -0.11220E-009
      89  -0.36466E+000   0.10252E+002  -0.74189E-001  -0.68767E+001   0.47877E+001   0.11609E+000
      90  -0.33868E+001   0.11825E+002   0.76669E+000  -0.82085E+001   0.49158E+001   0.16363E+001
      91  -0.21942E+001   0.25226E+001   0.33198E+001   0.14393E+001   0.52025E+001  -0.35611E+001
      92   0.24841E+000   0.25705E+001   0.62036E+001   0.11770E+001   0.27883E+001  -0.47629E+001
      93   0.26910E+001   0.26185E+001   0.90875E+001   0.91474E+000   0.23467E-010  -0.33205E-009
      94   0.24841E+000   0.25705E+001   0.62036E+001   0.11770E+001  -0.27883E+001   0.47629E+001
      95  -0.21942E+001   0.25226E+001   0.33198E+001   0.14393E+001  -0.52025E+001   0.35611E+001
      96  -0.24366E+000   0.60509E+001   0.44033E+001   0.49116E+001   0.50111E+001  -0.30525E+001
      97   0.23667E+001   0.70208E+001   0.71403E+001   0.44333E+001   0.28798E+001  -0.49351E+001
      98   0.49770E+001   0.79907E+001   0.98773E+001   0.39550E+001   0.56518E-010  -0.26512E-009
      99   0.23667E+001   0.70208E+001   0.71403E+001   0.44333E+001  -0.28798E+001   0.49351E+001
     100  -0.24366E+000   0.60509E+001   0.44033E+001   0.49116E+001  -0.50111E+001   0.30525E+001
     101   0.52803E+001   0.11258E+002   0.68299E+001   0.80805E+001   0.35067E+001  -0.12003E+001
     102   0.85530E+001   0.13425E+002   0.98139E+001   0.79681E+001   0.17606E+001  -0.44196E+001
     103   0.11826E+002   0.15591E+002   0.12798E+002   0.78557E+001   0.88160E-010  -0.13709E-009
     104   0.85530E+001   0.13425E+002   0.98139E+001   0.79681E+001  -0.17606E+001   0.44196E+001
     105   0.52803E+001   0.11258E+002   0.68299E+001   0.80805E+001  -0.35067E+001   0.12003E+001
     106   0.14842E+002   0.14715E+002   0.10898E+002  -0.60005E-009  -0.36143E-010   0.28198E+001
     107   0.18729E+002   0.15083E+002   0.16887E+002  -0.46549E-009   0.15740E-010  -0.21466E+001
     108   0.22616E+002   0.15451E+002   0.22876E+002  -0.24793E-009   0.62606E-010   0.18005E-009
     109   0.18729E+002   0.15083E+002   0.16887E+002  -0.11368E-009  -0.12767E-010   0.21466E+001
     110   0.14842E+002   0.14715E+002   0.10898E+002  -0.62444E-010  -0.83122E-010  -0.28198E+001
     111   0.52803E+001   0.11258E+002   0.68299E+001  -0.80805E+001  -0.35067E+001  -0.12003E+001
     112   0.85530E+001   0.13425E+002   0.98139E+001  -0.79681E+001  -0.17606E+001  -0.44196E+001
     113   0.11826E+002   0.15591E+002   0.12798E+002  -0.78557E+001  -0.23355E-010   0.20042E-009
     114   0.85530E+001   0.13425E+002   0.98139E+001  -0.79681E+001   0.17606E+001   0.44196E+001
     115   0.52803E+001   0.11258E+002   0.68299E+001  -0.80805E+001   0.35067E+001   0.12003E+001
     116  -0.24366E+000   0.60509E+001   0.44033E+001  -0.49116E+001  -0.50111E+001  -0.30525E+001
     117   0.23667E+001   0.70208E+001   0.71403E+001  -0.44333E+001  -0.28798E+001  -0.49351E+001
     118   0.49770E+001   0.79907E+001   0.98773E+001  -0.39550E+001   0.49279E-010   0.10358E-009
     119   0.23667E+001   0.70208E+001   0.71403E+001  -0.44333E+001   0.28798E+001   0.49351E+001
     120  -0.24366E+000   0.60509E+001   0.44033E+001  -0.49116E+001   0.50111E+001   0.30525E+001
     121  -0.21942E+001   0.25226E+001   0.33198E+001  -0.14393E+001  -0.52025E+001  -0.35611E+001
     122   0.24841E+000   0.25705E+001   0.62036E+001  -0.11770E+001  -0.27883E+001  -0.47629E+001
     123   0.26910E+001   0.26185E+001   0.90875E+001  -0.91474E+000   0.10304E-009   0.13678E-012
     124   0.24841E+000   0.25705E+001   0.62036E+001  -0.11770E+001   0.27883E+001   0.47629E+001
     125  -0.21942E+001   0.25226E+001   0.33198E+001  -0.14393E+001   0.52025E+001   0.35611E+001
     126   0.11848E+002   0.13826E+002   0.95354E+001   0.44666E+001   0.49768E+000   0.14815E+001
     127   0.15675E+002   0.15230E+002   0.14219E+002   0.49068E+001  -0.55692E+000  -0.29392E+001
     128   0.19502E+002   0.16635E+002   0.18902E+002   0.53470E+001   0.61035E-010   0.14024E-010
     129   0.15675E+002   0.15230E+002   0.14219E+002   0.49068E+001   0.55692E+000   0.29392E+001
     130   0.11848E+002   0.13826E+002   0.95354E+001   0.44666E+001  -0.49768E+000  -0.14815E+001
     131   0.11848E+002   0.13826E+002   0.95354E+001  -0.44666E+001  -0.49768E+000   0.14815E+001
     132   0.15675E+002   0.15230E+002   0.14219E+002  -0.49068E+001   0.55692E+000  -0.29392E+001
     133   0.19502E+002   0.16635E+002   0.18902E+002  -0.53470E+001   0.23834E-010   0.22494E-009
     134   0.15675E+002   0.15230E+002   0.14219E+002  -0.49068E+001  -0.55692E+000   0.29392E+001
     135   0.11848E+002   0.13826E+002   0.95354E+001  -0.44666E+001   0.49768E+000  -0.14815E+001
     136   0.29249E+002  -0.31748E+001   0.11358E+002  -0.11281E+001  -0.10921E+001  -0.39589E+001
     137   0.26652E+002  -0.30820E+001   0.18811E+002  -0.71348E+000  -0.94364E+000  -0.40932E+001
     138   0.24054E+002  -0.29891E+001   0.26264E+002  -0.29883E+000   0.81501E-010  -0.54031E-011
     139   0.26652E+002  -0.30820E+001   0.18811E+002  -0.71348E+000   0.94364E+000   0.40932E+001
     140   0.29249E+002  -0.31748E+001   0.11358E+002  -0.11281E+001   0.10921E+001   0.39589E+001
     141   0.29249E+002  -0.31748E+001   0.11358E+002   0.11281E+001   0.10921E+001  -0.39589E+001
     142   0.26652E+002  -0.30820E+001   0.18811E+002   0.71348E+000   0.94364E+000  -0.40932E+001
     143   0.24054E+002  -0.29891E+001   0.26264E+002   0.29883E+000   0.13019E-009   0.38598E-009
     144   0.26652E+002  -0.30820E+001   0.18811E+002   0.71348E+000  -0.94364E+000   0.40932E+001
     145   0.29249E+002  -0.31748E+001   0.11358E+002   0.11281E+001  -0.10921E+001   0.39589E+001
     146   0.86095E+001  -0.12633E+001   0.49450E+001   0.24437E+001   0.38454E+001  -0.27646E+001
     147   0.59458E+001  -0.83781E+000   0.10127E+002   0.27339E+001   0.24917E+001  -0.25182E+001
     148   0.32822E+001  -0.41234E+000   0.15309E+002   0.30240E+001   0.17647E-010  -0.39482E-010
     149   0.59458E+001  -0.83781E+000   0.10127E+002   0.27339E+001  -0.24917E+001   0.25182E+001
     150   0.86095E+001  -0.12633E+001   0.49450E+001   0.24437E+001  -0.38454E+001   0.27646E+001
     151   0.92426E+001  -0.12924E+001   0.47967E+001   0.28922E+001   0.31873E+001  -0.32792E+001
     152   0.64766E+001  -0.17178E+000   0.96938E+001   0.27352E+001   0.22031E+001  -0.31293E+001
     153   0.37105E+001   0.94887E+000   0.14591E+002   0.25782E+001  -0.61081E-010  -0.13093E-009
     154   0.64766E+001  -0.17178E+000   0.96938E+001   0.27352E+001  -0.22031E+001   0.31293E+001
     155   0.92426E+001  -0.12924E+001   0.47967E+001   0.28922E+001  -0.31873E+001   0.32792E+001
     156   0.16543E+002  -0.18288E+001   0.67253E+001   0.11126E+001   0.94761E+000  -0.42285E+001
     157   0.13708E+002  -0.43483E+000   0.12106E+002   0.91712E+000   0.64680E+000  -0.41055E+001
     158   0.10873E+002   0.95917E+000   0.17486E+002   0.72166E+000  -0.85507E-010  -0.24932E-009
     159   0.13708E+002  -0.43483E+000   0.12106E+002   0.91712E+000  -0.64680E+000   0.41055E+001
     160   0.16543E+002  -0.18288E+001   0.67253E+001   0.11126E+001  -0.94761E+000   0.42285E+001
     161   0.35288E+002  -0.40136E+001   0.13913E+002  -0.38344E-009   0.20392E-009  -0.32547E+001
     162   0.32894E+002  -0.48001E+001   0.22671E+002  -0.37048E-009   0.25271E-009  -0.37159E+001
     163   0.30500E+002  -0.55865E+001   0.31429E+002  -0.22905E-009   0.18735E-009   0.40243E-009
     164   0.32894E+002  -0.48001E+001   0.22671E+002  -0.15977E-009   0.29331E-010   0.37159E+001
     165   0.35288E+002  -0.40136E+001   0.13913E+002  -0.21894E-009  -0.14538E-010   0.32547E+001
     166   0.16543E+002  -0.18288E+001   0.67253E+001  -0.11126E+001  -0.94761E+000  -0.42285E+001
     167   0.13708E+002  -0.43483E+000   0.12106E+002  -0.91712E+000  -0.64680E+000  -0.41055E+001
     168   0.10873E+002   0.95917E+000   0.17486E+002  -0.72166E+000  -0.25606E-011   0.20973E-009
     169   0.13708E+002  -0.43483E+000   0.12106E+002  -0.91712E+000   0.64680E+000   0.41055E+001
     170   0.16543E+002  -0.18288E+001   0.67253E+001  -0.11126E+001   0.94761E+000   0.42285E+001
     171   0.92426E+001  -0.12924E+001   0.47967E+001  -0.28922E+001  -0.31873E+001  -0.32792E+001
     172   0.64766E+001  -0.17178E+000   0.96938E+001  -0.27352E+001  -0.22031E+001  -0.31293E+001
     173   0.37105E+001   0.94887E+000   0.14591E+002  -0.25782E+001  -0.31173E-010   0.11848E-009
     174   0.64766E+001  -0.17178E+000   0.96938E+001  -0.27352E+001   0.22031E+001   0.31293E+001
     175   0.92426E+001  -0.12924E+001   0.47967E+001  -0.28922E+001   0.31873E+001   0.32792E+001
     176   0.86095E+001  -0.12633E+001   0.49450E+001  -0.24437E+001  -0.38454E+001  -0.27646E+001
     177   0.59458E+001  -0.83781E+000   0.10127E+002  -0.27339E+001  -0.24917E+001  -0.25182E+001
     178   0.32822E+001  -0.41234E+000   0.15309E+002  -0.30240E+001   0.22655E-010   0.50035E-010
     179   0.59458E+001  -0.83781E+000   0.10127E+002  -0.27339E+001   0.24917E+001   0.25182E+001
     180   0.86095E+001  -0.12633E+001   0.49450E+001  -0.24437E+001   0.38454E+001   0.27646E+001
     181   0.30047E+000  -0.12399E+002   0.47523E+001   0.20176E+001   0.12155E+001   0.15591E+001
     182  -0.77086E+000  -0.10369E+002   0.83949E+001   0.25244E+001   0.16535E+001   0.21454E+001
     183  -0.18422E+001  -0.83397E+001   0.12038E+002   0.30313E+001  -0.80309E-010   0.32858E-010
     184  -0.77086E+000  -0.10369E+002   0.83949E+001   0.25244E+001  -0.16535E+001  -0.21454E+001
     185   0.30047E+000  -0.12399E+002   0.47523E+001   0.20176E+001  -0.12155E+001  -0.15591E+001
     186   0.28819E+002  -0.19956E+002   0.99104E+001  -0.34302E-009   0.18875E-009   0.99738E+000
     187   0.26094E+002  -0.21742E+002   0.15189E+002  -0.37580E-009   0.20768E-009   0.20172E+001
     188   0.23370E+002  -0.23528E+002   0.20467E+002  -0.28249E-009   0.12063E-009   0.16221E-009
     189   0.26094E+002  -0.21742E+002   0.15189E+002  -0.88392E-010   0.29020E-010  -0.20172E+001
     190   0.28819E+002  -0.19956E+002   0.99104E+001  -0.20394E-010   0.43385E-010  -0.99738E+000
     191   0.30047E+000  -0.12399E+002   0.47523E+001  -0.20176E+001  -0.12155E+001   0.15591E+001
     192  -0.77086E+000  -0.10369E+002   0.83949E+001  -0.25244E+001  -0.16535E+001   0.21454E+001
     193  -0.18422E+001  -0.83397E+001   0.12038E+002  -0.30313E+001  -0.12234E-009  -0.74354E-010
     194  -0.77086E+000  -0.10369E+002   0.83949E+001  -0.25244E+001   0.16535E+001  -0.21454E+001
     195   0.30047E+000  -0.12399E+002   0.47523E+001  -0.20176E+001   0.12155E+001  -0.15591E+001
     196  -0.78845E+001  -0.72217E+001   0.58751E+001   0.44323E+001   0.11872E+001   0.15236E+001
     197  -0.91320E+001  -0.63249E+001   0.89951E+001   0.50523E+001   0.17131E+001   0.20799E+001
     198  -0.10380E+002  -0.54281E+001   0.12115E+002   0.56724E+001   0.44121E-011   0.14011E-009
     199  -0.91320E+001  -0.63249E+001   0.89951E+001   0.50523E+001  -0.17131E+001  -0.20799E+001
     200  -0.78845E+001  -0.72217E+001   0.58751E+001   0.44323E+001  -0.11872E+001  -0.15236E+001
     201   0.15918E+002  -0.18210E+002   0.52347E+001  -0.31470E+001   0.23725E+000   0.13762E+001
     202   0.14423E+002  -0.15981E+002   0.96694E+001  -0.27341E+001   0.74010E+000   0.21510E+001
     203   0.12928E+002  -0.13752E+002   0.14104E+002  -0.23212E+001  -0.82000E-010  -0.14670E-009
     204   0.14423E+002  -0.15981E+002   0.96694E+001  -0.27341E+001  -0.74010E+000  -0.21510E+001
     205   0.15918E+002  -0.18210E+002   0.52347E+001  -0.31470E+001  -0.23725E+000  -0.13762E+001
     206   0.26085E+002  -0.19400E+002   0.83751E+001  -0.35854E+001  -0.88532E+000   0.10776E+001
     207   0.23675E+002  -0.19645E+002   0.13366E+002  -0.31391E+001  -0.27815E+000   0.20541E+001
     208   0.21266E+002  -0.19890E+002   0.18358E+002  -0.26927E+001   0.92502E-010  -0.69948E-010
     209   0.23675E+002  -0.19645E+002   0.13366E+002  -0.31391E+001   0.27815E+000  -0.20541E+001
     210   0.26085E+002  -0.19400E+002   0.83751E+001  -0.35854E+001   0.88532E+000  -0.10776E+001
     211   0.26085E+002  -0.19400E+002   0.83751E+001   0.35854E+001   0.88532E+000   0.10776E+001
     212   0.23675E+002  -0.19645E+002   0.13366E+002   0.31391E+001   0.27815E+000   0.20541E+001
     213   0.21266E+002  -0.19890E+002   0.18358E+002   0.26927E+001   0.58720E-010   0.98396E-010
     214   0.23675E+002  -0.19645E+002   0.13366E+002   0.31391E+001  -0.27815E+000  -0.20541E+001
     215   0.26085E+002  -0.19400E+002   0.83751E+001   0.35854E+001  -0.88532E+000  -0.10776E+001
     216   0.15918E+002  -0.18210E+002   0.52347E+001   0.31470E+001  -0.23725E+000   0.13762E+001
     217   0.14423E+002  -0.15981E+002   0.96694E+001   0.27341E+001  -0.74010E+000   0.21510E+001
     218   0.12928E+002  -0.13752E+002   0.14104E+002   0.23212E+001  -0.37107E-010  -0.76071E-010
     219   0.14423E+002  -0.15981E+002   0.96694E+001   0.27341E+001   0.74010E+000  -0.21510E+001
     220   0.15918E+002  -0.18210E+002   0.52347E+001   0.31470E+001   0.23725E+000  -0.13762E+001
     221  -0.78845E+001  -0.72217E+001   0.58751E+001  -0.44323E+001  -0.11872E+001   0.15236E+001
     222  -0.91320E+001  -0.63249E+001   0.89951E+001  -0.50523E+001  -0.17131E+001   0.20799E+001
     223  -0.10380E+002  -0.54281E+001   0.12115E+002  -0.56724E+001  -0.11031E-009  -0.45090E-010
     224  -0.91320E+001  -0.63249E+001   0.89951E+001  -0.50523E+001   0.17131E+001  -0.20799E+001
     225  -0.78845E+001  -0.72217E+001   0.58751E+001  -0.44323E+001   0.11872E+001  -0.15236E+001
     226  -0.14692E+002  -0.95404E+001   0.26985E+001  -0.97695E+000  -0.27395E+000   0.78289E+000
     227  -0.11231E+002  -0.67888E+001   0.55822E+001  -0.77785E+000   0.31908E+000   0.36317E+000
     228  -0.77702E+001  -0.40371E+001   0.84659E+001  -0.57876E+000  -0.65980E-010   0.16158E-009
     229  -0.11231E+002  -0.67888E+001   0.55822E+001  -0.77785E+000  -0.31908E+000  -0.36317E+000
     230  -0.14692E+002  -0.95404E+001   0.26985E+001  -0.97695E+000   0.27395E+000  -0.78289E+000
     231  -0.64668E+001  -0.15529E+002   0.23934E+001  -0.19415E+001  -0.77418E-002   0.12242E+001
     232  -0.28328E+001  -0.12288E+002   0.51183E+001  -0.15330E+001   0.32697E+000   0.79401E+000
     233   0.80119E+000  -0.90461E+001   0.78431E+001  -0.11245E+001  -0.54998E-011   0.12692E-009
     234  -0.28328E+001  -0.12288E+002   0.51183E+001  -0.15330E+001  -0.32697E+000  -0.79401E+000
     235  -0.64668E+001  -0.15529E+002   0.23934E+001  -0.19415E+001   0.77418E-002  -0.12242E+001
     236   0.51900E+001  -0.21598E+002   0.28664E+001  -0.28204E+001   0.30361E+000   0.19107E+001
     237   0.87703E+001  -0.18629E+002   0.51180E+001  -0.21661E+001   0.34091E+000   0.14496E+001
     238   0.12351E+002  -0.15660E+002   0.73696E+001  -0.15118E+001   0.28878E-010  -0.30701E-010
     239   0.87703E+001  -0.18629E+002   0.51180E+001  -0.21661E+001  -0.34091E+000  -0.14496E+001
     240   0.51900E+001  -0.21598E+002   0.28664E+001  -0.28204E+001  -0.30361E+000  -0.19107E+001
     241   0.84853E+001  -0.21268E+002   0.38753E+001  -0.13929E+001   0.18924E+000   0.19444E+001
     242   0.11575E+002  -0.20074E+002   0.55797E+001  -0.88289E+000   0.23235E+000   0.15590E+001
     243   0.14664E+002  -0.18881E+002   0.72841E+001  -0.37289E+000   0.26782E-010  -0.23605E-009
     244   0.11575E+002  -0.20074E+002   0.55797E+001  -0.88289E+000  -0.23235E+000  -0.15590E+001
     245   0.84853E+001  -0.21268E+002   0.38753E+001  -0.13929E+001  -0.18924E+000  -0.19444E+001
     246   0.83486E+001  -0.20859E+002   0.41061E+001  -0.39417E-009  -0.57427E-010   0.17330E+001
     247   0.11174E+002  -0.20678E+002   0.55778E+001  -0.53221E-009  -0.44897E-010   0.14437E+001
     248   0.14000E+002  -0.20497E+002   0.70494E+001  -0.52661E-009  -0.10382E-010  -0.18874E-009
     249   0.11174E+002  -0.20678E+002   0.55778E+001  -0.16465E-009   0.38143E-010  -0.14437E+001
     250   0.83486E+001  -0.20859E+002   0.41061E+001   0.53670E-010   0.64683E-010  -0.17330E+001
     251   0.84853E+001  -0.21268E+002   0.38753E+001   0.13929E+001  -0.18924E+000   0.19444E+001
     252   0.11575E+002  -0.20074E+002   0.55797E+001   0.88289E+000  -0.23235E+000   0.15590E+001
     253   0.14664E+002  -0.18881E+002   0.72841E+001   0.37289E+000  -0.45180E-010  -0.52204E-010
     254   0.11575E+002  -0.20074E+002   0.55797E+001   0.88289E+000   0.23235E+000  -0.15590E+001
     255   0.84853E+001  -0.21268E+002   0.38753E+001   0.13929E+001   0.18924E+000  -0.19444E+001
     256   0.51900E+001  -0.21598E+002   0.28664E+001   0.28204E+001  -0.30361E+000   0.19107E+001
     257   0.87703E+001  -0.18629E+002   0.51180E+001   0.21661E+001  -0.34091E+000   0.14496E+001
     258   0.12351E+002  -0.15660E+002   0.73696E+001   0.15118E+001  -0.39856E-010  -0.15499E-009
     259   0.87703E+001  -0.18629E+002   0.51180E+001   0.21661E+001   0.34091E+000  -0.14496E+001
     260   0.51900E+001  -0.21598E+002   0.28664E+001   0.28204E+001   0.30361E+000  -0.19107E+001
     261  -0.64668E+001  -0.15529E+002   0.23934E+001   0.19415E+001   0.77418E-002   0.12242E+001
     262  -0.28328E+001  -0.12288E+002   0.51183E+001   0.15330E+001  -0.32697E+000   0.79401E+000
     263   0.80119E+000  -0.90461E+001   0.78431E+001   0.11245E+001  -0.87019E-010  -0.22878E-009
     264  -0.28328E+001  -0.12288E+002   0.51183E+001   0.15330E+001   0.32697E+000  -0.79401E+000
     265  -0.64668E+001  -0.15529E+002   0.23934E+001   0.19415E+001  -0.77418E-002  -0.12242E+001
     266  -0.14692E+002  -0.95404E+001   0.26985E+001   0.97695E+000   0.27395E+000   0.78289E+000
     267  -0.11231E+002  -0.67888E+001   0.55822E+001   0.77785E+000  -0.31908E+000   0.36317E+000
     268  -0.77702E+001  -0.40371E+001   0.84659E+001   0.57876E+000  -0.11313E-009  -0.19294E-009
     269  -0.11231E+002  -0.67888E+001   0.55822E+001   0.77785E+000   0.31908E+000  -0.36317E+000
     270  -0.14692E+002  -0.95404E+001   0.26985E+001   0.97695E+000  -0.27395E+000  -0.78289E+000
     271   0.55263E+001  -0.14704E+001  -0.15181E+001   0.11439E+001   0.40146E+000  -0.98481E+000
     272   0.62466E+001  -0.94536E+000  -0.14748E+001   0.12345E+001   0.15084E+000  -0.70395E+000
     273   0.69668E+001  -0.42034E+000  -0.14316E+001   0.13250E+001  -0.63194E-010  -0.36460E-009
     274   0.62466E+001  -0.94536E+000  -0.14748E+001   0.12345E+001  -0.15084E+000   0.70395E+000
     275   0.55263E+001  -0.14704E+001  -0.15181E+001   0.11439E+001  -0.40146E+000   0.98481E+000
     276   0.55263E+001  -0.14704E+001  -0.15181E+001  -0.11439E+001  -0.40146E+000  -0.98481E+000
     277   0.62466E+001  -0.94536E+000  -0.14748E+001  -0.12345E+001  -0.15084E+000  -0.70395E+000
     278   0.69668E+001  -0.42034E+000  -0.14316E+001  -0.13250E+001  -0.14578E-010  -0.14721E-009
     279   0.62466E+001  -0.94536E+000  -0.14748E+001  -0.12345E+001   0.15084E+000   0.70395E+000
     280   0.55263E+001  -0.14704E+001  -0.15181E+001  -0.11439E+001   0.40146E+000   0.98481E+000
     281   0.93371E+001  -0.20483E+001   0.11646E+000  -0.31392E+001  -0.55704E+000  -0.10960E+001
     282   0.99211E+001  -0.82697E+000   0.23458E+001  -0.33759E+001  -0.31766E+000  -0.12134E+001
     283   0.10505E+002   0.39434E+000   0.45752E+001  -0.36126E+001   0.61669E-011   0.33164E-009
     284   0.99211E+001  -0.82697E+000   0.23458E+001  -0.33759E+001   0.31766E+000   0.12134E+001
     285   0.93371E+001  -0.20483E+001   0.11646E+000  -0.31392E+001   0.55704E+000   0.10960E+001
     286   0.79686E+001  -0.32166E+001  -0.57745E+000  -0.19023E+001  -0.23886E+000  -0.98324E+000
     287   0.84556E+001  -0.21958E+001   0.97555E+000  -0.19590E+001  -0.15615E+000  -0.99630E+000
     288   0.89426E+001  -0.11749E+001   0.25286E+001  -0.20157E+001   0.13731E-010   0.22334E-009
     289   0.84556E+001  -0.21958E+001   0.97555E+000  -0.19590E+001   0.15615E+000   0.99630E+000
     290   0.79686E+001  -0.32166E+001  -0.57745E+000  -0.19023E+001   0.23886E+000   0.98324E+000
     291   0.59707E+001  -0.30194E+001  -0.11897E+001   0.54616E+000   0.25175E+000  -0.88383E+000
     292   0.64051E+001  -0.24554E+001  -0.78998E+000   0.68986E+000   0.79981E-001  -0.72491E+000
     293   0.68394E+001  -0.18914E+001  -0.39029E+000   0.83356E+000  -0.25833E-010  -0.81201E-010
     294   0.64051E+001  -0.24554E+001  -0.78998E+000   0.68986E+000  -0.79981E-001   0.72491E+000
     295   0.59707E+001  -0.30194E+001  -0.11897E+001   0.54616E+000  -0.25175E+000   0.88383E+000
     296   0.57112E+001  -0.12869E+001  -0.19281E+001  -0.31196E-009  -0.42008E-010  -0.10724E+001
     297   0.66731E+001  -0.54451E+000  -0.17644E+001  -0.46365E-009  -0.18498E-010  -0.73725E+000
     298   0.76350E+001   0.19783E+000  -0.16008E+001  -0.51238E-009  -0.11562E-010  -0.33486E-009
     299   0.66731E+001  -0.54451E+000  -0.17644E+001  -0.23040E-009  -0.79080E-010   0.73725E+000
     300   0.57112E+001  -0.12869E+001  -0.19281E+001  -0.51384E-010  -0.13002E-009   0.10724E+001
     301   0.59707E+001  -0.30194E+001  -0.11897E+001  -0.54616E+000  -0.25175E+000  -0.88383E+000
     302   0.64051E+001  -0.24554E+001  -0.78998E+000  -0.68986E+000  -0.79981E-001  -0.72491E+000
     303   0.68394E+001  -0.18914E+001  -0.39029E+000  -0.83356E+000  -0.15557E-010  -0.17072E-009
     304   0.64051E+001  -0.24554E+001  -0.78998E+000  -0.68986E+000   0.79981E-001   0.72491E+000
     305   0.59707E+001  -0.30194E+001  -0.11897E+001  -0.54616E+000   0.25175E+000   0.88383E+000
     306   0.79686E+001  -0.32166E+001  -0.57745E+000   0.19023E+001   0.23886E+000  -0.98324E+000
     307   0.84556E+001  -0.21958E+001   0.97555E+000   0.19590E+001   0.15615E+000  -0.99630E+000
     308   0.89426E+001  -0.11749E+001   0.25286E+001   0.20157E+001   0.10206E-010  -0.26716E-009
     309   0.84556E+001  -0.21958E+001   0.97555E+000   0.19590E+001  -0.15615E+000   0.99630E+000
     310   0.79686E+001  -0.32166E+001  -0.57745E+000   0.19023E+001  -0.23886E+000   0.98324E+000
     311   0.93371E+001  -0.20483E+001   0.11646E+000   0.31392E+001   0.55704E+000  -0.10960E+001
     312   0.99211E+001  -0.82697E+000   0.23458E+001   0.33759E+001   0.31766E+000  -0.12134E+001
     313   0.10505E+002   0.39434E+000   0.45752E+001   0.36126E+001  -0.79347E-011  -0.26933E-009
     314   0.99211E+001  -0.82697E+000   0.23458E+001   0.33759E+001  -0.31766E+000   0.12134E+001
     315   0.93371E+001  -0.20483E+001   0.11646E+000   0.31392E+001  -0.55704E+000   0.10960E+001
     316   0.16320E+002   0.86785E+001   0.52555E+000   0.19191E+001   0.23674E+000   0.92065E+000
     317   0.14973E+002   0.67001E+001  -0.12093E+001   0.14944E+001   0.11779E+000   0.83467E+000
     318   0.13626E+002   0.47216E+001  -0.29442E+001   0.10696E+001   0.61151E-010   0.17668E-009
     319   0.14973E+002   0.67001E+001  -0.12093E+001   0.14944E+001  -0.11779E+000  -0.83467E+000
     320   0.16320E+002   0.86785E+001   0.52555E+000   0.19191E+001  -0.23674E+000  -0.92065E+000
     321   0.10704E+002   0.11897E+002  -0.87304E+000   0.42108E+001   0.21517E+000   0.89892E+000
     322   0.10120E+002   0.10929E+002  -0.16330E+001   0.37435E+001   0.15350E+000   0.86250E+000
     323   0.95362E+001   0.99615E+001  -0.23930E+001   0.32763E+001  -0.63145E-011   0.13985E-010
     324   0.10120E+002   0.10929E+002  -0.16330E+001   0.37435E+001  -0.15350E+000  -0.86250E+000
     325   0.10704E+002   0.11897E+002  -0.87304E+000   0.42108E+001  -0.21517E+000  -0.89892E+000
     326   0.15321E+001   0.19644E+002  -0.22942E+001   0.60823E+001   0.88830E-001   0.81819E+000
     327   0.19459E+001   0.19828E+002  -0.19690E+001   0.56020E+001   0.15458E+000   0.87622E+000
     328   0.23596E+001   0.20012E+002  -0.16437E+001   0.51216E+001  -0.52362E-010  -0.24082E-009
     329   0.19459E+001   0.19828E+002  -0.19690E+001   0.56020E+001  -0.15458E+000  -0.87622E+000
     330   0.15321E+001   0.19644E+002  -0.22942E+001   0.60823E+001  -0.88830E-001  -0.81819E+000
     331  -0.37855E+001   0.25855E+002  -0.23364E+001   0.37131E+001   0.26631E-001   0.80934E+000
     332  -0.30917E+001   0.26227E+002  -0.20171E+001   0.33811E+001   0.84608E-001   0.87822E+000
     333  -0.23979E+001   0.26599E+002  -0.16978E+001   0.30491E+001  -0.19811E-010  -0.30397E-009
     334  -0.30917E+001   0.26227E+002  -0.20171E+001   0.33811E+001  -0.84608E-001  -0.87822E+000
     335  -0.37855E+001   0.25855E+002  -0.23364E+001   0.37131E+001  -0.26631E-001  -0.80934E+000
     336  -0.55469E+001   0.27538E+002  -0.23559E+001  -0.29010E-009   0.95478E-010   0.85948E+000
     337  -0.48077E+001   0.27956E+002  -0.21530E+001  -0.30020E-009   0.10860E-009   0.89432E+000
     338  -0.40684E+001   0.28375E+002  -0.19500E+001  -0.29808E-009   0.17828E-010  -0.25658E-009
     339  -0.48077E+001   0.27956E+002  -0.21530E+001  -0.22209E-009  -0.92165E-010  -0.89432E+000
     340  -0.55469E+001   0.27538E+002  -0.23559E+001  -0.15832E-009  -0.98254E-010  -0.85948E+000
     341  -0.37855E+001   0.25855E+002  -0.23364E+001  -0.37131E+001  -0.26631E-001   0.80934E+000
     342  -0.30917E+001   0.26227E+002  -0.20171E+001  -0.33811E+001  -0.84608E-001   0.87822E+000
     343  -0.23979E+001   0.26599E+002  -0.16978E+001  -0.30491E+001   0.14686E-010  -0.18527E-009
     344  -0.30917E+001   0.26227E+002  -0.20171E+001  -0.33811E+001   0.84608E-001  -0.87822E+000
     345  -0.37855E+001   0.25855E+002  -0.23364E+001  -0.37131E+001   0.26631E-001  -0.80934E+000
     346   0.15321E+001   0.19644E+002  -0.22942E+001  -0.60823E+001  -0.88830E-001   0.81819E+000
     347   0.19459E+001   0.19828E+002  -0.19690E+001  -0.56020E+001  -0.15458E+000   0.87622E+000
     348   0.23596E+001   0.20012E+002  -0.16437E+001  -0.51216E+001  -0.46502E-011  -0.16054E-009
     349   0.19459E+001   0.19828E+002  -0.19690E+001  -0.56020E+001   0.15458E+000  -0.87622E+000
     350   0.15321E+001   0.19644E+002  -0.22942E+001  -0.60823E+001   0.88830E-001  -0.81819E+000
     351   0.10704E+002   0.11897E+002  -0.87304E+000  -0.42108E+001  -0.21517E+000   0.89892E+000
     352   0.10120E+002   0.10929E+002  -0.16330E+001  -0.37435E+001  -0.15350E+000   0.86250E+000
     353   0.95362E+001   0.99615E+001  -0.23930E+001  -0.32763E+001   0.42147E-010  -0.18489E-009
     354   0.10120E+002   0.10929E+002  -0.16330E+001  -0.37435E+001   0.15350E+000  -0.86250E+000
     355   0.10704E+002   0.11897E+002  -0.87304E+000  -0.42108E+001   0.21517E+000  -0.89892E+000
     356   0.16320E+002   0.86785E+001   0.52555E+000  -0.19191E+001  -0.23674E+000   0.92065E+000
     357   0.14973E+002   0.67001E+001  -0.12093E+001  -0.14944E+001  -0.11779E+000   0.83467E+000
     358   0.13626E+002   0.47216E+001  -0.29442E+001  -0.10696E+001   0.78632E-010  -0.18108E-009
     359   0.14973E+002   0.67001E+001  -0.12093E+001  -0.14944E+001   0.11779E+000  -0.83467E+000
     360   0.16320E+002   0.86785E+001   0.52555E+000  -0.19191E+001   0.23674E+000  -0.92065E+000
     361   0.60242E+001   0.82731E+001  -0.24906E+001   0.10434E+002   0.32075E+000   0.67430E+000
     362   0.71490E+001   0.77027E+001  -0.43881E+001   0.98653E+001   0.25593E+000   0.65160E+000
     363   0.82738E+001   0.71322E+001  -0.62857E+001   0.92963E+001   0.20124E-010  -0.85100E-010
     364   0.71490E+001   0.77027E+001  -0.43881E+001   0.98653E+001  -0.25593E+000  -0.65160E+000
     365   0.60242E+001   0.82731E+001  -0.24906E+001   0.10434E+002  -0.32075E+000  -0.67430E+000
     366  -0.46614E+001   0.16494E+002  -0.18673E+001   0.12834E+002   0.49195E+000   0.10139E+001
     367  -0.33463E+001   0.15983E+002  -0.33629E+001   0.11988E+002   0.36963E+000   0.85527E+000
     368  -0.20312E+001   0.15473E+002  -0.48585E+001   0.11141E+002   0.22170E-011  -0.17059E-009
     369  -0.33463E+001   0.15983E+002  -0.33629E+001   0.11988E+002  -0.36963E+000  -0.85527E+000
     370  -0.46614E+001   0.16494E+002  -0.18673E+001   0.12834E+002  -0.49195E+000  -0.10139E+001
     371  -0.24705E+002   0.30783E+002  -0.10768E+001   0.13957E+002   0.33160E+000   0.13458E+001
     372  -0.22976E+002   0.30422E+002  -0.19189E+001   0.13032E+002   0.30839E+000   0.10593E+001
     373  -0.21247E+002   0.30061E+002  -0.27609E+001   0.12107E+002   0.10352E-010  -0.23365E-009
     374  -0.22976E+002   0.30422E+002  -0.19189E+001   0.13032E+002  -0.30839E+000  -0.10593E+001
     375  -0.24705E+002   0.30783E+002  -0.10768E+001   0.13957E+002  -0.33160E+000  -0.13458E+001
     376  -0.46779E+002   0.45007E+002   0.15442E+000  -0.23819E-009   0.61381E-010   0.13859E+001
     377  -0.45236E+002   0.43925E+002  -0.12030E+001  -0.25603E-009   0.57756E-010   0.11340E+001
     378  -0.43694E+002   0.42843E+002  -0.25604E+001  -0.29971E-009   0.15203E-010  -0.21391E-009
     379  -0.45236E+002   0.43925E+002  -0.12030E+001  -0.30400E-009   0.18826E-010  -0.11340E+001
     380  -0.46779E+002   0.45007E+002   0.15442E+000  -0.28245E-009   0.61378E-010  -0.13859E+001
     381  -0.24705E+002   0.30783E+002  -0.10768E+001  -0.13957E+002  -0.33160E+000   0.13458E+001
     382  -0.22976E+002   0.30422E+002  -0.19189E+001  -0.13032E+002  -0.30839E+000   0.10593E+001
     383  -0.21247E+002   0.30061E+002  -0.27609E+001  -0.12107E+002   0.14347E-010  -0.15400E-009
     384  -0.22976E+002   0.30422E+002  -0.19189E+001  -0.13032E+002   0.30839E+000  -0.10593E+001
     385  -0.24705E+002   0.30783E+002  -0.10768E+001  -0.13957E+002   0.33160E+000  -0.13458E+001
     386  -0.46614E+001   0.16494E+002  -0.18673E+001  -0.12834E+002  -0.49195E+000   0.10139E+001
     387  -0.33463E+001   0.15983E+002  -0.33629E+001  -0.11988E+002  -0.36963E+000   0.85527E+000
     388  -0.20312E+001   0.15473E+002  -0.48585E+001  -0.11141E+002   0.34143E-010  -0.89091E-010
     389  -0.33463E+001   0.15983E+002  -0.33629E+001  -0.11988E+002   0.36963E+000  -0.85527E+000
     390  -0.46614E+001   0.16494E+002  -0.18673E+001  -0.12834E+002   0.49195E+000  -0.10139E+001
     391   0.60242E+001   0.82731E+001  -0.24906E+001  -0.10434E+002  -0.32075E+000   0.67430E+000
     392   0.71490E+001   0.77027E+001  -0.43881E+001  -0.98653E+001  -0.25593E+000   0.65160E+000
     393   0.82738E+001   0.71322E+001  -0.62857E+001  -0.92963E+001   0.81036E-010  -0.61172E-010
     394   0.71490E+001   0.77027E+001  -0.43881E+001  -0.98653E+001   0.25593E+000  -0.65160E+000
     395   0.60242E+001   0.82731E+001  -0.24906E+001  -0.10434E+002   0.32075E+000  -0.67430E+000
     396  -0.40421E+002   0.40930E+002  -0.37756E+000   0.88176E+001  -0.44974E-001   0.13620E+001
     397  -0.38673E+002   0.40253E+002  -0.13515E+001   0.83366E+001   0.83136E-001   0.10968E+001
     398  -0.36926E+002   0.39575E+002  -0.23254E+001   0.78556E+001   0.28888E-010  -0.20350E-009
     399  -0.38673E+002   0.40253E+002  -0.13515E+001   0.83366E+001  -0.83136E-001  -0.10968E+001
     400  -0.40421E+002   0.40930E+002  -0.37756E+000   0.88176E+001   0.44974E-001  -0.13620E+001
     401  -0.40421E+002   0.40930E+002  -0.37756E+000  -0.88176E+001   0.44974E-001   0.13620E+001
     402  -0.38673E+002   0.40253E+002  -0.13515E+001  -0.83366E+001  -0.83136E-001   0.10968E+001
     403  -0.36926E+002   0.39575E+002  -0.23254E+001  -0.78556E+001   0.25234E-010  -0.21151E-009
     404  -0.38673E+002   0.40253E+002  -0.13515E+001  -0.83366E+001   0.83136E-001  -0.10968E+001
     405  -0.40421E+002   0.40930E+002  -0.37756E+000  -0.88176E+001  -0.44974E-001  -0.13620E+001
     406   0.76051E+001   0.82274E+000  -0.32700E+001   0.10648E+002  -0.32640E+000  -0.73170E+000
     407   0.87834E+001   0.12484E+001  -0.35285E+001   0.95600E+001  -0.36230E+000  -0.89144E+000
     408   0.99617E+001   0.16740E+001  -0.37871E+001   0.84721E+001  -0.44550E-011  -0.78893E-010
     409   0.87834E+001   0.12484E+001  -0.35285E+001   0.95600E+001   0.36230E+000   0.89144E+000
     410   0.76051E+001   0.82274E+000  -0.32700E+001   0.10648E+002   0.32640E+000   0.73170E+000
     411  -0.15298E+002   0.56479E+001  -0.20631E+001   0.18809E+002  -0.96470E+000   0.77026E-001
     412  -0.14616E+002   0.46004E+001  -0.30558E+001   0.17649E+002  -0.77179E+000  -0.16343E+000
     413  -0.13934E+002   0.35529E+001  -0.40486E+001   0.16488E+002   0.95263E-011  -0.74472E-010
     414  -0.14616E+002   0.46004E+001  -0.30558E+001   0.17649E+002   0.77179E+000   0.16343E+000
     415  -0.15298E+002   0.56479E+001  -0.20631E+001   0.18809E+002   0.96470E+000  -0.77026E-001
     416  -0.58339E+002   0.16300E+002  -0.87559E+000   0.22022E+002  -0.60069E+000   0.11295E+001
     417  -0.57959E+002   0.14015E+002  -0.22292E+001   0.21133E+002  -0.54013E+000   0.82588E+000
     418  -0.57580E+002   0.11731E+002  -0.35829E+001   0.20244E+002   0.34877E-010  -0.89597E-010
     419  -0.57959E+002   0.14015E+002  -0.22292E+001   0.21133E+002   0.54013E+000  -0.82588E+000
     420  -0.58339E+002   0.16300E+002  -0.87559E+000   0.22022E+002   0.60069E+000  -0.11295E+001
     421  -0.84912E+002   0.24172E+002  -0.14440E+001   0.10650E+002   0.41778E+000   0.11265E+001
     422  -0.84102E+002   0.22400E+002  -0.16529E+001   0.10349E+002   0.20893E+000   0.92928E+000
     423  -0.83292E+002   0.20628E+002  -0.18618E+001   0.10047E+002   0.39281E-010  -0.18221E-009
     424  -0.84102E+002   0.22400E+002  -0.16529E+001   0.10349E+002  -0.20893E+000  -0.92928E+000
     425  -0.84912E+002   0.24172E+002  -0.14440E+001   0.10650E+002  -0.41778E+000  -0.11265E+001
     426  -0.91347E+002   0.26217E+002  -0.19930E+001  -0.11687E-009   0.84412E-011   0.87976E+000
     427  -0.90300E+002   0.24722E+002  -0.14305E+001  -0.19136E-009   0.15942E-010   0.77138E+000
     428  -0.89253E+002   0.23226E+002  -0.86800E+000  -0.29290E-009   0.26990E-010  -0.28340E-009
     429  -0.90300E+002   0.24722E+002  -0.14305E+001  -0.29952E-009   0.33164E-010  -0.77138E+000
     430  -0.91347E+002   0.26217E+002  -0.19930E+001  -0.27911E-009   0.35790E-010  -0.87976E+000
     431  -0.84912E+002   0.24172E+002  -0.14440E+001  -0.10650E+002  -0.41778E+000   0.11265E+001
     432  -0.84102E+002   0.22400E+002  -0.16529E+001  -0.10349E+002  -0.20893E+000   0.92928E+000
     433  -0.83292E+002   0.20628E+002  -0.18618E+001  -0.10047E+002   0.21514E-010  -0.28543E-009
     434  -0.84102E+002   0.22400E+002  -0.16529E+001  -0.10349E+002   0.20893E+000  -0.92928E+000
     435  -0.84912E+002   0.24172E+002  -0.14440E+001  -0.10650E+002   0.41778E+000  -0.11265E+001
     436  -0.58339E+002   0.16300E+002  -0.87559E+000  -0.22022E+002   0.60069E+000   0.11295E+001
     437  -0.57959E+002   0.14015E+002  -0.22292E+001  -0.21133E+002   0.54013E+000   0.82588E+000
     438  -0.57580E+002   0.11731E+002  -0.35829E+001  -0.20244E+002   0.74440E-011  -0.17175E-009
     439  -0.57959E+002   0.14015E+002  -0.22292E+001  -0.21133E+002  -0.54013E+000  -0.82588E+000
     440  -0.58339E+002   0.16300E+002  -0.87559E+000  -0.22022E+002  -0.60069E+000  -0.11295E+001
     441  -0.15298E+002   0.56479E+001  -0.20631E+001  -0.18809E+002   0.96470E+000   0.77026E-001
     442  -0.14616E+002   0.46004E+001  -0.30558E+001  -0.17649E+002   0.77179E+000  -0.16343E+000
     443  -0.13934E+002   0.35529E+001  -0.40486E+001  -0.16488E+002  -0.91495E-011  -0.37425E-010
     444  -0.14616E+002   0.46004E+001  -0.30558E+001  -0.17649E+002  -0.77179E+000   0.16343E+000
     445  -0.15298E+002   0.56479E+001  -0.20631E+001  -0.18809E+002  -0.96470E+000  -0.77026E-001
     446   0.76051E+001   0.82274E+000  -0.32700E+001  -0.10648E+002   0.32640E+000  -0.73170E+000
     447   0.87834E+001   0.12484E+001  -0.35285E+001  -0.95600E+001   0.36230E+000  -0.89144E+000
     448   0.99617E+001   0.16740E+001  -0.37871E+001  -0.84721E+001  -0.11824E-010   0.93143E-011
     449   0.87834E+001   0.12484E+001  -0.35285E+001  -0.95600E+001  -0.36230E+000   0.89144E+000
     450   0.76051E+001   0.82274E+000  -0.32700E+001  -0.10648E+002  -0.32640E+000   0.73170E+000
     451   0.14647E+002  -0.10853E+001   0.33934E+000   0.50784E+001  -0.42358E+000  -0.11414E+001
     452   0.13629E+002  -0.23576E+001  -0.81931E+000   0.37033E+001  -0.70781E+000  -0.15256E+001
     453   0.12612E+002  -0.36299E+001  -0.19780E+001   0.23282E+001  -0.81893E-011  -0.51795E-010
     454   0.13629E+002  -0.23576E+001  -0.81931E+000   0.37033E+001   0.70781E+000   0.15256E+001
     455   0.14647E+002  -0.10853E+001   0.33934E+000   0.50784E+001   0.42358E+000   0.11414E+001
     456  -0.15885E+002  -0.34109E+001   0.64341E-001   0.19691E+002  -0.22881E+001   0.74037E-002
     457  -0.17257E+002  -0.61445E+001  -0.16304E+001   0.18455E+002  -0.18876E+001  -0.41885E+000
     458  -0.18630E+002  -0.88780E+001  -0.33251E+001   0.17220E+002   0.37332E-011  -0.25126E-010
     459  -0.17257E+002  -0.61445E+001  -0.16304E+001   0.18455E+002   0.18876E+001   0.41885E+000
     460  -0.15885E+002  -0.34109E+001   0.64341E-001   0.19691E+002   0.22881E+001  -0.74037E-002
     461  -0.97929E+002  -0.67369E+001  -0.15701E+001   0.23980E+002  -0.85127E+000   0.69576E+000
     462  -0.10094E+003  -0.10183E+002  -0.32893E+001   0.23826E+002  -0.76272E+000   0.49917E+000
     463  -0.10395E+003  -0.13628E+002  -0.50084E+001   0.23671E+002   0.12929E-010  -0.44271E-010
     464  -0.10094E+003  -0.10183E+002  -0.32893E+001   0.23826E+002   0.76272E+000  -0.49917E+000
     465  -0.97929E+002  -0.67369E+001  -0.15701E+001   0.23980E+002   0.85127E+000  -0.69576E+000
     466  -0.11593E+003  -0.65732E+001  -0.32341E+000   0.11904E+002   0.81665E+000  -0.86105E-001
     467  -0.11914E+003  -0.90700E+001  -0.57994E+000   0.12164E+002   0.50987E+000  -0.52824E-001
     468  -0.12235E+003  -0.11567E+002  -0.83648E+000   0.12423E+002   0.13309E-010  -0.12693E-009
     469  -0.11914E+003  -0.90700E+001  -0.57994E+000   0.12164E+002  -0.50987E+000   0.52824E-001
     470  -0.11593E+003  -0.65732E+001  -0.32341E+000   0.11904E+002  -0.81665E+000   0.86105E-001
     471  -0.10817E+003  -0.59093E+001   0.16031E+001  -0.94887E-010  -0.13775E-010  -0.63774E+000
     472  -0.11094E+003  -0.78318E+001   0.25533E+001  -0.13849E-009  -0.10688E-011  -0.51043E+000
     473  -0.11371E+003  -0.97544E+001   0.35035E+001  -0.19472E-009   0.10707E-010  -0.20139E-009
     474  -0.11094E+003  -0.78318E+001   0.25533E+001  -0.21632E-009   0.68122E-011   0.51043E+000
     475  -0.10817E+003  -0.59093E+001   0.16031E+001  -0.22529E-009   0.38485E-011   0.63774E+000
     476  -0.11593E+003  -0.65732E+001  -0.32341E+000  -0.11904E+002  -0.81665E+000  -0.86105E-001
     477  -0.11914E+003  -0.90700E+001  -0.57994E+000  -0.12164E+002  -0.50987E+000  -0.52824E-001
     478  -0.12235E+003  -0.11567E+002  -0.83648E+000  -0.12423E+002   0.11190E-011  -0.19209E-009
     479  -0.11914E+003  -0.90700E+001  -0.57994E+000  -0.12164E+002   0.50987E+000   0.52824E-001
     480  -0.11593E+003  -0.65732E+001  -0.32341E+000  -0.11904E+002   0.81665E+000   0.86105E-001
     481  -0.97929E+002  -0.67369E+001  -0.15701E+001  -0.23980E+002   0.85127E+000   0.69576E+000
     482  -0.10094E+003  -0.10183E+002  -0.32893E+001  -0.23826E+002   0.76272E+000   0.49917E+000
     483  -0.10395E+003  -0.13628E+002  -0.50084E+001  -0.23671E+002  -0.72540E-011  -0.13851E-009
     484  -0.10094E+003  -0.10183E+002  -0.32893E+001  -0.23826E+002  -0.76272E+000  -0.49917E+000
     485  -0.97929E+002  -0.67369E+001  -0.15701E+001  -0.23980E+002  -0.85127E+000  -0.69576E+000
     486  -0.15885E+002  -0.34109E+001   0.64341E-001  -0.19691E+002   0.22881E+001   0.74037E-002
     487  -0.17257E+002  -0.61445E+001  -0.16304E+001  -0.18455E+002   0.18876E+001  -0.41885E+000
     488  -0.18630E+002  -0.88780E+001  -0.33251E+001  -0.17220E+002  -0.44412E-010  -0.28200E-010
     489  -0.17257E+002  -0.61445E+001  -0.16304E+001  -0.18455E+002  -0.18876E+001   0.41885E+000
     490  -0.15885E+002  -0.34109E+001   0.64341E-001  -0.19691E+002  -0.22881E+001  -0.74037E-002
     491   0.14647E+002  -0.10853E+001   0.33934E+000  -0.50784E+001   0.42358E+000  -0.11414E+001
     492   0.13629E+002  -0.23576E+001  -0.81931E+000  -0.37033E+001   0.70781E+000  -0.15256E+001
     493   0.12612E+002  -0.36299E+001  -0.19780E+001  -0.23282E+001  -0.75310E-010   0.22968E-010
     494   0.13629E+002  -0.23576E+001  -0.81931E+000  -0.37033E+001  -0.70781E+000   0.15256E+001
     495   0.14647E+002  -0.10853E+001   0.33934E+000  -0.50784E+001  -0.42358E+000   0.11414E+001
     496  -0.12044E+003  -0.10505E+002   0.14457E+001   0.76231E+001   0.39179E+000  -0.11716E+001
     497  -0.12349E+003  -0.11308E+002   0.17697E+001   0.78225E+001   0.33677E+000  -0.92529E+000
     498  -0.12654E+003  -0.12111E+002   0.20936E+001   0.80218E+001  -0.13210E-010  -0.14107E-010
     499  -0.12349E+003  -0.11308E+002   0.17697E+001   0.78225E+001  -0.33677E+000   0.92529E+000
     500  -0.12044E+003  -0.10505E+002   0.14457E+001   0.76231E+001  -0.39179E+000   0.11716E+001
     501  -0.11322E+003  -0.12016E+002   0.25144E+001  -0.63626E-010  -0.17632E-010  -0.11877E+001
     502  -0.11623E+003  -0.12901E+002   0.30008E+001  -0.69056E-010  -0.10698E-010  -0.96960E+000
     503  -0.11924E+003  -0.13786E+002   0.34872E+001  -0.98788E-010  -0.87983E-012  -0.52338E-010
     504  -0.11623E+003  -0.12901E+002   0.30008E+001  -0.13894E-009   0.40099E-011   0.96960E+000
     505  -0.11322E+003  -0.12016E+002   0.25144E+001  -0.15479E-009   0.60166E-011   0.11877E+001
     506  -0.12044E+003  -0.10505E+002   0.14457E+001  -0.76231E+001  -0.39179E+000  -0.11716E+001
     507  -0.12349E+003  -0.11308E+002   0.17697E+001  -0.78225E+001  -0.33677E+000  -0.92529E+000
     508  -0.12654E+003  -0.12111E+002   0.20936E+001  -0.80218E+001   0.25939E-011  -0.80252E-010
     509  -0.12349E+003  -0.11308E+002   0.17697E+001  -0.78225E+001   0.33677E+000   0.92529E+000
     510  -0.12044E+003  -0.10505E+002   0.14457E+001  -0.76231E+001   0.39179E+000   0.11716E+001
     511  -0.12766E+003  -0.89949E+001   0.37712E+000   0.95975E+001   0.38846E+000  -0.11555E+001
     512  -0.13075E+003  -0.97160E+001   0.53849E+000   0.98667E+001   0.31529E+000  -0.88097E+000
     513  -0.13385E+003  -0.10437E+002   0.69987E+000   0.10136E+002  -0.24558E-010  -0.81213E-013
     514  -0.13075E+003  -0.97160E+001   0.53849E+000   0.98667E+001  -0.31529E+000   0.88097E+000
     515  -0.12766E+003  -0.89949E+001   0.37712E+000   0.95975E+001  -0.38846E+000   0.11555E+001
     516  -0.12766E+003  -0.89949E+001   0.37712E+000  -0.95975E+001  -0.38846E+000  -0.11555E+001
     517  -0.13075E+003  -0.97160E+001   0.53849E+000  -0.98667E+001  -0.31529E+000  -0.88097E+000
     518  -0.13385E+003  -0.10437E+002   0.69987E+000  -0.10136E+002   0.50849E-011  -0.83962E-010
     519  -0.13075E+003  -0.97160E+001   0.53849E+000  -0.98667E+001   0.31529E+000   0.88097E+000
     520  -0.12766E+003  -0.89949E+001   0.37712E+000  -0.95975E+001   0.38846E+000   0.11555E+001
     521  -0.95909E+002  -0.10625E+001   0.78976E-001  -0.40099E+000  -0.85623E-001   0.84980E-002
     522  -0.95471E+002  -0.36989E+000   0.13109E+001  -0.53217E+000  -0.61607E-001  -0.87489E-001
     523  -0.95032E+002   0.32273E+000   0.25429E+001  -0.66334E+000   0.11992E-011   0.10849E-010
     524  -0.95471E+002  -0.36989E+000   0.13109E+001  -0.53217E+000   0.61607E-001   0.87489E-001
     525  -0.95909E+002  -0.10625E+001   0.78976E-001  -0.40099E+000   0.85623E-001  -0.84980E-002
     526  -0.93298E+002   0.87515E+000   0.14021E+001  -0.11176E+001  -0.14893E+000  -0.15607E+000
     527  -0.92768E+002   0.17009E+001   0.27833E+001  -0.13134E+001  -0.10100E+000  -0.23236E+000
     528  -0.92237E+002   0.25266E+001   0.41646E+001  -0.15092E+001  -0.36008E-011   0.13652E-010
     529  -0.92768E+002   0.17009E+001   0.27833E+001  -0.13134E+001   0.10100E+000   0.23236E+000
     530  -0.93298E+002   0.87515E+000   0.14021E+001  -0.11176E+001   0.14893E+000   0.15607E+000
     531  -0.98521E+002  -0.30002E+001  -0.12441E+001  -0.15133E-011   0.76293E-011   0.17306E+000
     532  -0.98174E+002  -0.24407E+001  -0.16151E+000   0.24661E-011   0.43178E-011   0.57387E-001
     533  -0.97828E+002  -0.18812E+001   0.92112E+000  -0.22521E-010   0.44749E-011  -0.19782E-010
     534  -0.98174E+002  -0.24407E+001  -0.16151E+000  -0.67296E-010   0.10140E-010  -0.57387E-001
     535  -0.98521E+002  -0.30002E+001  -0.12441E+001  -0.83103E-010   0.12337E-010  -0.17306E+000
     536  -0.95909E+002  -0.10625E+001   0.78976E-001   0.40099E+000   0.85623E-001   0.84980E-002
     537  -0.95471E+002  -0.36989E+000   0.13109E+001   0.53217E+000   0.61607E-001  -0.87489E-001
     538  -0.95032E+002   0.32273E+000   0.25429E+001   0.66334E+000   0.46336E-011  -0.55457E-010
     539  -0.95471E+002  -0.36989E+000   0.13109E+001   0.53217E+000  -0.61607E-001   0.87489E-001
     540  -0.95909E+002  -0.10625E+001   0.78976E-001   0.40099E+000  -0.85623E-001  -0.84980E-002
     541  -0.93298E+002   0.87515E+000   0.14021E+001   0.11176E+001   0.14893E+000  -0.15607E+000
     542  -0.92768E+002   0.17009E+001   0.27833E+001   0.13134E+001   0.10100E+000  -0.23236E+000
     543  -0.92237E+002   0.25266E+001   0.41646E+001   0.15092E+001   0.63165E-011  -0.63303E-010
     544  -0.92768E+002   0.17009E+001   0.27833E+001   0.13134E+001  -0.10100E+000   0.23236E+000
     545  -0.93298E+002   0.87515E+000   0.14021E+001   0.11176E+001  -0.14893E+000   0.15607E+000
     546  -0.60540E+002  -0.32378E+000  -0.85373E+000  -0.31334E+000  -0.96685E-003   0.42653E+000
     547  -0.59711E+002  -0.38687E+000  -0.12528E+001  -0.28002E+000  -0.44172E-001   0.29575E+000
     548  -0.58882E+002  -0.44996E+000  -0.16520E+001  -0.24670E+000   0.93168E-011   0.48690E-013
     549  -0.59711E+002  -0.38687E+000  -0.12528E+001  -0.28002E+000   0.44172E-001  -0.29575E+000
     550  -0.60540E+002  -0.32378E+000  -0.85373E+000  -0.31334E+000   0.96685E-003  -0.42653E+000
     551  -0.60702E+002  -0.42406E+000  -0.84820E+000  -0.57411E+000  -0.20903E-001   0.34268E+000
     552  -0.59815E+002  -0.37884E+000  -0.11454E+001  -0.55719E+000  -0.46920E-001   0.23120E+000
     553  -0.58928E+002  -0.33362E+000  -0.14425E+001  -0.54028E+000   0.52908E-011  -0.66801E-011
     554  -0.59815E+002  -0.37884E+000  -0.11454E+001  -0.55719E+000   0.46920E-001  -0.23120E+000
     555  -0.60702E+002  -0.42406E+000  -0.84820E+000  -0.57411E+000   0.20903E-001  -0.34268E+000
     556  -0.60863E+002  -0.52435E+000  -0.84266E+000   0.39468E-011   0.93174E-011   0.25883E+000
     557  -0.59919E+002  -0.37081E+000  -0.10379E+001   0.32298E-011   0.40635E-011   0.16666E+000
     558  -0.58975E+002  -0.21728E+000  -0.12331E+001  -0.52152E-011   0.15551E-011  -0.20605E-010
     559  -0.59919E+002  -0.37081E+000  -0.10379E+001  -0.23450E-010   0.60743E-011  -0.16666E+000
     560  -0.60863E+002  -0.52435E+000  -0.84266E+000  -0.33957E-010   0.78479E-011  -0.25883E+000
     561  -0.60702E+002  -0.42406E+000  -0.84820E+000   0.57411E+000   0.20903E-001   0.34268E+000
     562  -0.59815E+002  -0.37884E+000  -0.11454E+001   0.55719E+000   0.46920E-001   0.23120E+000
     563  -0.58928E+002  -0.33362E+000  -0.14425E+001   0.54028E+000  -0.41480E-012  -0.31028E-010
     564  -0.59815E+002  -0.37884E+000  -0.11454E+001   0.55719E+000  -0.46920E-001  -0.23120E+000
     565  -0.60702E+002  -0.42406E+000  -0.84820E+000   0.57411E+000  -0.20903E-001  -0.34268E+000
     566  -0.60540E+002  -0.32378E+000  -0.85373E+000   0.31334E+000   0.96685E-003   0.42653E+000
     567  -0.59711E+002  -0.38687E+000  -0.12528E+001   0.28002E+000   0.44172E-001   0.29575E+000
     568  -0.58882E+002  -0.44996E+000  -0.16520E+001   0.24670E+000  -0.26750E-011  -0.34256E-010
     569  -0.59711E+002  -0.38687E+000  -0.12528E+001   0.28002E+000  -0.44172E-001  -0.29575E+000
     570  -0.60540E+002  -0.32378E+000  -0.85373E+000   0.31334E+000  -0.96685E-003  -0.42653E+000
     571  -0.29592E+002  -0.13453E+001  -0.13229E+000   0.52414E-011   0.37694E-012  -0.46251E-001
     572  -0.29349E+002  -0.15862E+001  -0.10974E+001   0.17859E-011  -0.45398E-012  -0.15473E-001
     573  -0.29106E+002  -0.18271E+001  -0.20626E+001  -0.17724E-011  -0.93586E-012  -0.60995E-011
     574  -0.29349E+002  -0.15862E+001  -0.10974E+001  -0.17540E-011  -0.79220E-012   0.15473E-001
     575  -0.29592E+002  -0.13453E+001  -0.13229E+000  -0.16329E-011  -0.99758E-012   0.46251E-001
     576  -0.31205E+002  -0.61355E+000  -0.45854E+000  -0.58796E-001   0.59262E-001  -0.69286E-001
     577  -0.30933E+002  -0.82194E+000  -0.13547E+001  -0.44122E-001   0.48036E-001  -0.14003E-001
     578  -0.30662E+002  -0.10303E+001  -0.22508E+001  -0.29448E-001  -0.43802E-012   0.12979E-011
     579  -0.30933E+002  -0.82194E+000  -0.13547E+001  -0.44122E-001  -0.48036E-001   0.14003E-001
     580  -0.31205E+002  -0.61355E+000  -0.45854E+000  -0.58796E-001  -0.59262E-001   0.69286E-001
     581  -0.30399E+002  -0.97941E+000  -0.29541E+000   0.78015E-001   0.18151E-001  -0.57768E-001
     582  -0.30141E+002  -0.12041E+001  -0.12261E+001   0.90943E-001   0.23514E-001  -0.14738E-001
     583  -0.29884E+002  -0.14287E+001  -0.21567E+001   0.10387E+000  -0.11473E-011  -0.24383E-011
     584  -0.30141E+002  -0.12041E+001  -0.12261E+001   0.90943E-001  -0.23514E-001   0.14738E-001
     585  -0.30399E+002  -0.97941E+000  -0.29541E+000   0.78015E-001  -0.18151E-001   0.57768E-001
     586  -0.30399E+002  -0.97941E+000  -0.29541E+000  -0.78015E-001  -0.18151E-001  -0.57768E-001
     587  -0.30141E+002  -0.12041E+001  -0.12261E+001  -0.90943E-001  -0.23514E-001  -0.14738E-001
     588  -0.29884E+002  -0.14287E+001  -0.21567E+001  -0.10387E+000  -0.28515E-012  -0.62397E-011
     589  -0.30141E+002  -0.12041E+001  -0.12261E+001  -0.90943E-001   0.23514E-001   0.14738E-001
     590  -0.30399E+002  -0.97941E+000  -0.29541E+000  -0.78015E-001   0.18151E-001   0.57768E-001
     591  -0.31205E+002  -0.61355E+000  -0.45854E+000   0.58796E-001  -0.59262E-001  -0.69286E-001
     592  -0.30933E+002  -0.82194E+000  -0.13547E+001   0.44122E-001  -0.48036E-001  -0.14003E-001
     593  -0.30662E+002  -0.10303E+001  -0.22508E+001   0.29448E-001  -0.55522E-012  -0.64551E-011
     594  -0.30933E+002  -0.82194E+000  -0.13547E+001   0.44122E-001   0.48036E-001   0.14003E-001
     595  -0.31205E+002  -0.61355E+000  -0.45854E+000   0.58796E-001   0.59262E-001   0.69286E-001
     596  -0.12761E+002  -0.52350E+000  -0.48335E+000  -0.35251E-001  -0.29234E-002  -0.86992E-001
     597  -0.12505E+002  -0.49325E+000  -0.73253E+000  -0.33783E-001  -0.60944E-002  -0.72695E-001
     598  -0.12249E+002  -0.46300E+000  -0.98171E+000  -0.32316E-001  -0.84490E-012   0.17337E-012
     599  -0.12505E+002  -0.49325E+000  -0.73253E+000  -0.33783E-001   0.60944E-002   0.72695E-001
     600  -0.12761E+002  -0.52350E+000  -0.48335E+000  -0.35251E-001   0.29234E-002   0.86992E-001
     601  -0.12509E+002  -0.78683E+000  -0.46023E+000  -0.76536E-001  -0.26295E-002  -0.91679E-001
     602  -0.12273E+002  -0.78743E+000  -0.74585E+000  -0.75155E-001  -0.15903E-002  -0.68829E-001
     603  -0.12037E+002  -0.78802E+000  -0.10315E+001  -0.73774E-001  -0.66601E-012  -0.23251E-012
     604  -0.12273E+002  -0.78743E+000  -0.74585E+000  -0.75155E-001   0.15903E-002   0.68829E-001
     605  -0.12509E+002  -0.78683E+000  -0.46023E+000  -0.76536E-001   0.26295E-002   0.91679E-001
     606  -0.12256E+002  -0.10502E+001  -0.43710E+000   0.29108E-011  -0.43637E-012  -0.96367E-001
     607  -0.12040E+002  -0.10816E+001  -0.75916E+000   0.23319E-011  -0.50970E-012  -0.64963E-001
     608  -0.11825E+002  -0.11130E+001  -0.10812E+001   0.13130E-011  -0.34304E-012  -0.98103E-012
     609  -0.12040E+002  -0.10816E+001  -0.75916E+000   0.13446E-011  -0.29110E-012   0.64963E-001
     610  -0.12256E+002  -0.10502E+001  -0.43710E+000   0.18161E-011  -0.47913E-012   0.96367E-001
     611  -0.12509E+002  -0.78683E+000  -0.46023E+000   0.76536E-001   0.26295E-002  -0.91679E-001
     612  -0.12273E+002  -0.78743E+000  -0.74585E+000   0.75155E-001   0.15903E-002  -0.68829E-001
     613  -0.12037E+002  -0.78802E+000  -0.10315E+001   0.73774E-001   0.21736E-012  -0.15286E-011
     614  -0.12273E+002  -0.78743E+000  -0.74585E+000   0.75155E-001  -0.15903E-002   0.68829E-001
     615  -0.12509E+002  -0.78683E+000  -0.46023E+000   0.76536E-001  -0.26295E-002   0.91679E-001
     616  -0.12761E+002  -0.52350E+000  -0.48335E+000   0.35251E-001   0.29234E-002  -0.86992E-001
     617  -0.12505E+002  -0.49325E+000  -0.73253E+000   0.33783E-001   0.60944E-002  -0.72695E-001
     618  -0.12249E+002  -0.46300E+000  -0.98171E+000   0.32316E-001   0.63367E-012  -0.17336E-011
     619  -0.12505E+002  -0.49325E+000  -0.73253E+000   0.33783E-001  -0.60944E-002   0.72695E-001
     620  -0.12761E+002  -0.52350E+000  -0.48335E+000   0.35251E-001  -0.29234E-002   0.86992E-001
     621  -0.41220E+001   0.20725E-001  -0.48609E-001  -0.59463E-001   0.11671E-001  -0.51665E-001
     622  -0.40565E+001  -0.88901E-002  -0.19650E+000  -0.62667E-001  -0.67899E-003  -0.41629E-001
     623  -0.39910E+001  -0.38505E-001  -0.34440E+000  -0.65870E-001  -0.65042E-014   0.65806E-013
     624  -0.40565E+001  -0.88901E-002  -0.19650E+000  -0.62667E-001   0.67899E-003   0.41629E-001
     625  -0.41220E+001   0.20725E-001  -0.48609E-001  -0.59463E-001  -0.11671E-001   0.51665E-001
     626  -0.41304E+001  -0.24832E+000  -0.16110E+000  -0.30814E-001   0.32683E-002  -0.50517E-001
     627  -0.40480E+001  -0.25759E+000  -0.27752E+000  -0.32824E-001  -0.39008E-002  -0.42296E-001
     628  -0.39657E+001  -0.26685E+000  -0.39394E+000  -0.34834E-001  -0.48836E-013  -0.59639E-013
     629  -0.40480E+001  -0.25759E+000  -0.27752E+000  -0.32824E-001   0.39008E-002   0.42296E-001
     630  -0.41304E+001  -0.24832E+000  -0.16110E+000  -0.30814E-001  -0.32683E-002   0.50517E-001
     631  -0.41387E+001  -0.51737E+000  -0.27359E+000   0.60047E-012   0.10538E-013  -0.49369E-001
     632  -0.40395E+001  -0.50628E+000  -0.35854E+000   0.54394E-012   0.84297E-017  -0.42964E-001
     633  -0.39403E+001  -0.49520E+000  -0.44349E+000   0.30756E-012   0.21005E-013  -0.35501E-012
     634  -0.40395E+001  -0.50628E+000  -0.35854E+000   0.11154E-012   0.10724E-012   0.42964E-001
     635  -0.41387E+001  -0.51737E+000  -0.27359E+000   0.95366E-013   0.16195E-012   0.49369E-001
     636  -0.41304E+001  -0.24832E+000  -0.16110E+000   0.30814E-001  -0.32683E-002  -0.50517E-001
     637  -0.40480E+001  -0.25759E+000  -0.27752E+000   0.32824E-001   0.39008E-002  -0.42296E-001
     638  -0.39657E+001  -0.26685E+000  -0.39394E+000   0.34834E-001   0.93875E-013  -0.36844E-012
     639  -0.40480E+001  -0.25759E+000  -0.27752E+000   0.32824E-001  -0.39008E-002   0.42296E-001
     640  -0.41304E+001  -0.24832E+000  -0.16110E+000   0.30814E-001   0.32683E-002   0.50517E-001
     641  -0.41220E+001   0.20725E-001  -0.48609E-001   0.59463E-001  -0.11671E-001  -0.51665E-001
     642  -0.40565E+001  -0.88901E-002  -0.19650E+000   0.62667E-001   0.67899E-003  -0.41629E-001
     643  -0.39910E+001  -0.38505E-001  -0.34440E+000   0.65870E-001   0.54574E-013  -0.21195E-012
     644  -0.40565E+001  -0.88901E-002  -0.19650E+000   0.62667E-001  -0.67899E-003   0.41629E-001
     645  -0.41220E+001   0.20725E-001  -0.48609E-001   0.59463E-001   0.11671E-001   0.51665E-001
     646  -0.11078E+001  -0.11048E+000  -0.18651E-001  -0.19108E-013   0.30589E-013  -0.15431E-001
     647  -0.10985E+001  -0.12903E+000  -0.89304E-001  -0.31140E-013   0.28696E-013  -0.11121E-001
     648  -0.10892E+001  -0.14758E+000  -0.15996E+000  -0.10329E-013   0.32294E-014  -0.10456E-012
     649  -0.10985E+001  -0.12903E+000  -0.89304E-001   0.49288E-013   0.79521E-015   0.11121E-001
     650  -0.11078E+001  -0.11048E+000  -0.18651E-001   0.76064E-013   0.21935E-013   0.15431E-001
     651  -0.11771E+001  -0.34390E-001  -0.23997E-001  -0.14824E-001   0.12677E-002  -0.17484E-001
     652  -0.11639E+001  -0.51976E-001  -0.88763E-001  -0.14315E-001   0.79963E-003  -0.10726E-001
     653  -0.11506E+001  -0.69563E-001  -0.15353E+000  -0.13806E-001  -0.31115E-013  -0.29598E-013
     654  -0.11639E+001  -0.51976E-001  -0.88763E-001  -0.14315E-001  -0.79963E-003   0.10726E-001
     655  -0.11771E+001  -0.34390E-001  -0.23997E-001  -0.14824E-001  -0.12677E-002   0.17484E-001
     656  -0.11425E+001  -0.72437E-001  -0.21324E-001  -0.98357E-002   0.11452E-003  -0.16457E-001
     657  -0.11312E+001  -0.90503E-001  -0.89033E-001  -0.10115E-001   0.20998E-003  -0.10924E-001
     658  -0.11199E+001  -0.10857E+000  -0.15674E+000  -0.10394E-001  -0.29692E-013  -0.85032E-013
     659  -0.11312E+001  -0.90503E-001  -0.89033E-001  -0.10115E-001  -0.20998E-003   0.10924E-001
     660  -0.11425E+001  -0.72437E-001  -0.21324E-001  -0.98357E-002  -0.11452E-003   0.16457E-001
     661  -0.11425E+001  -0.72437E-001  -0.21324E-001   0.98357E-002  -0.11452E-003  -0.16457E-001
     662  -0.11312E+001  -0.90503E-001  -0.89033E-001   0.10115E-001  -0.20998E-003  -0.10924E-001
     663  -0.11199E+001  -0.10857E+000  -0.15674E+000   0.10394E-001   0.20384E-013   0.64415E-015
     664  -0.11312E+001  -0.90503E-001  -0.89033E-001   0.10115E-001   0.20998E-003   0.10924E-001
     665  -0.11425E+001  -0.72437E-001  -0.21324E-001   0.98357E-002   0.11452E-003   0.16457E-001
     666  -0.11771E+001  -0.34390E-001  -0.23997E-001   0.14824E-001  -0.12677E-002  -0.17484E-001
     667  -0.11639E+001  -0.51976E-001  -0.88763E-001   0.14315E-001  -0.79963E-003  -0.10726E-001
     668  -0.11506E+001  -0.69563E-001  -0.15353E+000   0.13806E-001   0.60400E-014   0.69939E-013
     669  -0.11639E+001  -0.51976E-001  -0.88763E-001   0.14315E-001   0.79963E-003   0.10726E-001
     670  -0.11771E+001  -0.34390E-001  -0.23997E-001   0.14824E-001   0.12677E-002   0.17484E-001
     671  -0.26134E+000  -0.22226E-001  -0.98032E-002   0.80913E-014  -0.15362E-013  -0.51380E-002
     672  -0.25500E+000  -0.25064E-001  -0.21492E-001   0.29220E-014  -0.91777E-014  -0.30393E-002
     673  -0.24867E+000  -0.27901E-001  -0.33180E-001   0.22910E-014   0.31085E-014  -0.28402E-013
     674  -0.25500E+000  -0.25064E-001  -0.21492E-001   0.18465E-013   0.27597E-014   0.30393E-002
     675  -0.26134E+000  -0.22226E-001  -0.98032E-002   0.30099E-013  -0.36906E-014   0.51380E-002
     676  -0.29757E+000  -0.54069E-001  -0.43136E-001  -0.56241E-002  -0.15578E-002  -0.35330E-002
     677  -0.28386E+000  -0.45505E-001  -0.41156E-001  -0.54955E-002  -0.69849E-003  -0.30993E-002
     678  -0.27015E+000  -0.36940E-001  -0.39175E-001  -0.53669E-002   0.19846E-014  -0.41787E-013
     679  -0.28386E+000  -0.45505E-001  -0.41156E-001  -0.54955E-002   0.69849E-003   0.30993E-002
     680  -0.29757E+000  -0.54069E-001  -0.43136E-001  -0.56241E-002   0.15578E-002   0.35330E-002
     681  -0.27945E+000  -0.38148E-001  -0.26470E-001  -0.58221E-002  -0.14721E-002  -0.43355E-002
     682  -0.26943E+000  -0.35284E-001  -0.31324E-001  -0.54673E-002  -0.36117E-003  -0.30693E-002
     683  -0.25941E+000  -0.32421E-001  -0.36178E-001  -0.51126E-002   0.88434E-014  -0.37465E-013
     684  -0.26943E+000  -0.35284E-001  -0.31324E-001  -0.54673E-002   0.36117E-003   0.30693E-002
     685  -0.27945E+000  -0.38148E-001  -0.26470E-001  -0.58221E-002   0.14721E-002   0.43355E-002
     686  -0.27945E+000  -0.38148E-001  -0.26470E-001   0.58221E-002   0.14721E-002  -0.43355E-002
     687  -0.26943E+000  -0.35284E-001  -0.31324E-001   0.54673E-002   0.36117E-003  -0.30693E-002
     688  -0.25941E+000  -0.32421E-001  -0.36178E-001   0.51126E-002  -0.59527E-014  -0.12278E-013
     689  -0.26943E+000  -0.35284E-001  -0.31324E-001   0.54673E-002  -0.36117E-003   0.30693E-002
     690  -0.27945E+000  -0.38148E-001  -0.26470E-001   0.58221E-002  -0.14721E-002   0.43355E-002
     691  -0.29757E+000  -0.54069E-001  -0.43136E-001   0.56241E-002   0.15578E-002  -0.35330E-002
     692  -0.28386E+000  -0.45505E-001  -0.41156E-001   0.54955E-002   0.69849E-003  -0.30993E-002
     693  -0.27015E+000  -0.36940E-001  -0.39175E-001   0.53669E-002  -0.24202E-014  -0.89609E-015
     694  -0.28386E+000  -0.45505E-001  -0.41156E-001   0.54955E-002  -0.69849E-003   0.30993E-002
     695  -0.29757E+000  -0.54069E-001  -0.43136E-001   0.56241E-002  -0.15578E-002   0.35330E-002
     696  -0.47547E-001   0.11459E-001   0.67147E-002  -0.71820E-003   0.52332E-003  -0.13620E-002
     697  -0.48769E-001   0.88297E-002   0.14647E-002  -0.82766E-003   0.61909E-005  -0.12291E-002
     698  -0.49991E-001   0.62004E-002  -0.37853E-002  -0.93712E-003  -0.17938E-014   0.17423E-015
     699  -0.48769E-001   0.88297E-002   0.14647E-002  -0.82766E-003  -0.61909E-005   0.12291E-002
     700  -0.47547E-001   0.11459E-001   0.67147E-002  -0.71820E-003  -0.52332E-003   0.13620E-002
     701  -0.52604E-001  -0.10488E-002  -0.63352E-003  -0.53485E-003   0.37646E-003  -0.12320E-002
     702  -0.52444E-001  -0.20280E-002  -0.36290E-002  -0.59496E-003  -0.68995E-004  -0.11949E-002
     703  -0.52284E-001  -0.30073E-002  -0.66245E-002  -0.65508E-003  -0.44942E-014  -0.87148E-015
     704  -0.52444E-001  -0.20280E-002  -0.36290E-002  -0.59496E-003   0.68995E-004   0.11949E-002
     705  -0.52604E-001  -0.10488E-002  -0.63352E-003  -0.53485E-003  -0.37646E-003   0.12320E-002
     706  -0.57661E-001  -0.13557E-001  -0.79818E-002   0.40430E-014   0.10048E-014  -0.11020E-002
     707  -0.56119E-001  -0.12886E-001  -0.87227E-002   0.19766E-014   0.40913E-015  -0.11607E-002
     708  -0.54578E-001  -0.12215E-001  -0.94637E-002  -0.11181E-015  -0.11810E-014  -0.16712E-014
     709  -0.56119E-001  -0.12886E-001  -0.87227E-002   0.50898E-015   0.53169E-015   0.11607E-002
     710  -0.57661E-001  -0.13557E-001  -0.79818E-002   0.11517E-014   0.32388E-014   0.11020E-002
     711  -0.52604E-001  -0.10488E-002  -0.63352E-003   0.53485E-003  -0.37646E-003  -0.12320E-002
     712  -0.52444E-001  -0.20280E-002  -0.36290E-002   0.59496E-003   0.68995E-004  -0.11949E-002
     713  -0.52284E-001  -0.30073E-002  -0.66245E-002   0.65508E-003   0.26941E-014   0.20362E-015
     714  -0.52444E-001  -0.20280E-002  -0.36290E-002   0.59496E-003  -0.68995E-004   0.11949E-002
     715  -0.52604E-001  -0.10488E-002  -0.63352E-003   0.53485E-003   0.37646E-003   0.12320E-002
     716  -0.47547E-001   0.11459E-001   0.67147E-002   0.71820E-003  -0.52332E-003  -0.13620E-002
     717  -0.48769E-001   0.88297E-002   0.14647E-002   0.82766E-003  -0.61909E-005  -0.12291E-002
     718  -0.49991E-001   0.62004E-002  -0.37853E-002   0.93712E-003   0.55569E-015   0.18322E-014
     719  -0.48769E-001   0.88297E-002   0.14647E-002   0.82766E-003   0.61909E-005   0.12291E-002
     720  -0.47547E-001   0.11459E-001   0.67147E-002   0.71820E-003   0.52332E-003   0.13620E-002
     721  -0.19611E-001   0.20285E-002   0.25513E-002  -0.56262E-003   0.29371E-003  -0.84572E-003
     722  -0.19978E-001   0.33622E-003  -0.90730E-003  -0.44612E-003   0.18692E-003   0.18699E-003
     723  -0.20346E-001  -0.13561E-002  -0.43659E-002  -0.32962E-003  -0.87847E-015   0.37959E-014
     724  -0.19978E-001   0.33622E-003  -0.90730E-003  -0.44612E-003  -0.18692E-003  -0.18699E-003
     725  -0.19611E-001   0.20285E-002   0.25513E-002  -0.56262E-003  -0.29371E-003   0.84572E-003
     726  -0.18683E-001  -0.19191E-003   0.18331E-002   0.10026E-002   0.11130E-003  -0.50225E-003
     727  -0.18993E-001  -0.14287E-002  -0.12630E-002   0.86943E-003   0.51879E-004   0.12530E-003
     728  -0.19304E-001  -0.26655E-002  -0.43592E-002   0.73624E-003   0.40931E-015   0.37597E-014
     729  -0.18993E-001  -0.14287E-002  -0.12630E-002   0.86943E-003  -0.51879E-004  -0.12530E-003
     730  -0.18683E-001  -0.19191E-003   0.18331E-002   0.10026E-002  -0.11130E-003   0.50225E-003
     731  -0.17756E-001  -0.24123E-002   0.11149E-002   0.25717E-015  -0.35848E-015  -0.15879E-003
     732  -0.18009E-001  -0.31936E-002  -0.16188E-002  -0.52259E-015  -0.12701E-015   0.63614E-004
     733  -0.18262E-001  -0.39750E-002  -0.43524E-002  -0.12642E-014   0.87351E-015   0.38346E-014
     734  -0.18009E-001  -0.31936E-002  -0.16188E-002  -0.22476E-015   0.58181E-015  -0.63614E-004
     735  -0.17756E-001  -0.24123E-002   0.11149E-002   0.77651E-015  -0.47893E-015   0.15879E-003
     736  -0.18683E-001  -0.19191E-003   0.18331E-002  -0.10026E-002  -0.11130E-003  -0.50225E-003
     737  -0.18993E-001  -0.14287E-002  -0.12630E-002  -0.86943E-003  -0.51879E-004   0.12530E-003
     738  -0.19304E-001  -0.26655E-002  -0.43592E-002  -0.73624E-003   0.51351E-016   0.34383E-014
     739  -0.18993E-001  -0.14287E-002  -0.12630E-002  -0.86943E-003   0.51879E-004  -0.12530E-003
     740  -0.18683E-001  -0.19191E-003   0.18331E-002  -0.10026E-002   0.11130E-003   0.50225E-003
     741  -0.19611E-001   0.20285E-002   0.25513E-002   0.56262E-003  -0.29371E-003  -0.84572E-003
     742  -0.19978E-001   0.33622E-003  -0.90730E-003   0.44612E-003  -0.18692E-003   0.18699E-003
     743  -0.20346E-001  -0.13561E-002  -0.43659E-002   0.32962E-003   0.52774E-016   0.29310E-014
     744  -0.19978E-001   0.33622E-003  -0.90730E-003   0.44612E-003   0.18692E-003  -0.18699E-003
     745  -0.19611E-001   0.20285E-002   0.25513E-002   0.56262E-003   0.29371E-003   0.84572E-003
