    NODE   SXX         SYY         SZZ         SXY         SYZ         SZX  
       1   0.18710E+002   0.42068E+001  -0.18553E+001  -0.62579E+000  -0.35503E+001  -0.10512E+001
       2   0.97648E+001  -0.41518E+000   0.47536E+000  -0.16600E+001  -0.48540E+001   0.33904E+001
       3   0.81993E+000  -0.50372E+001   0.28060E+001  -0.26943E+001   0.32504E-009  -0.31492E-009
       4   0.97648E+001  -0.41518E+000   0.47536E+000  -0.16600E+001   0.48540E+001  -0.33904E+001
       5   0.18710E+002   0.42068E+001  -0.18553E+001  -0.62579E+000   0.35503E+001   0.10512E+001
       6   0.19719E+002   0.29753E+001   0.96862E+000   0.23470E+001  -0.11085E+001  -0.13799E+001
       7   0.10955E+002  -0.93849E+000   0.31333E+001   0.58770E+000  -0.23389E+001   0.22826E+001
       8   0.21913E+001  -0.48523E+001   0.52981E+001  -0.11717E+001   0.26863E-009  -0.20945E-009
       9   0.10955E+002  -0.93849E+000   0.31333E+001   0.58770E+000   0.23389E+001  -0.22826E+001
      10   0.19719E+002   0.29753E+001   0.96862E+000   0.23470E+001   0.11085E+001   0.13799E+001
      11   0.17866E+002  -0.49597E+001   0.12983E+001   0.88657E+000  -0.11884E-001  -0.30529E+001
      12   0.96993E+001  -0.61512E+001   0.33401E+001  -0.75179E+000  -0.60722E+000  -0.26335E+000
      13   0.15331E+001  -0.73426E+001   0.53820E+001  -0.23902E+001   0.32548E-009  -0.25811E-009
      14   0.96993E+001  -0.61512E+001   0.33401E+001  -0.75179E+000   0.60722E+000   0.26335E+000
      15   0.17866E+002  -0.49597E+001   0.12983E+001   0.88657E+000   0.11884E-001   0.30529E+001
      16   0.11296E+002  -0.12534E+002   0.26333E+000  -0.48475E+001  -0.20835E+001  -0.42674E+001
      17   0.24695E+001  -0.13693E+002   0.12590E+001  -0.46832E+001  -0.23844E+001  -0.18337E+001
      18  -0.63566E+001  -0.14851E+002   0.22546E+001  -0.45190E+001   0.18906E-009  -0.57300E-009
      19   0.24695E+001  -0.13693E+002   0.12590E+001  -0.46832E+001   0.23844E+001   0.18337E+001
      20   0.11296E+002  -0.12534E+002   0.26333E+000  -0.48475E+001   0.20835E+001   0.42674E+001
      21   0.75875E+001  -0.13405E+002   0.17227E+001   0.99279E-010  -0.73467E-009  -0.41376E+001
      22  -0.23146E+001  -0.16545E+002   0.16291E+001  -0.17141E-010  -0.67748E-009  -0.19660E+001
      23  -0.12217E+002  -0.19685E+002   0.15354E+001  -0.27593E-010  -0.37983E-009  -0.61028E-009
      24  -0.23146E+001  -0.16545E+002   0.16291E+001  -0.21301E-009  -0.17712E-010   0.19660E+001
      25   0.75875E+001  -0.13405E+002   0.17227E+001  -0.50441E-009   0.10395E-009   0.41376E+001
      26   0.11296E+002  -0.12534E+002   0.26333E+000   0.48475E+001   0.20835E+001  -0.42674E+001
      27   0.24695E+001  -0.13693E+002   0.12590E+001   0.46832E+001   0.23844E+001  -0.18337E+001
      28  -0.63566E+001  -0.14851E+002   0.22546E+001   0.45190E+001  -0.28555E-009  -0.36027E-009
      29   0.24695E+001  -0.13693E+002   0.12590E+001   0.46832E+001  -0.23844E+001   0.18337E+001
      30   0.11296E+002  -0.12534E+002   0.26333E+000   0.48475E+001  -0.20835E+001   0.42674E+001
      31   0.17866E+002  -0.49597E+001   0.12983E+001  -0.88657E+000   0.11884E-001  -0.30529E+001
      32   0.96993E+001  -0.61512E+001   0.33401E+001   0.75179E+000   0.60722E+000  -0.26335E+000
      33   0.15331E+001  -0.73426E+001   0.53820E+001   0.23902E+001   0.16626E-010  -0.34897E-009
      34   0.96993E+001  -0.61512E+001   0.33401E+001   0.75179E+000  -0.60722E+000   0.26335E+000
      35   0.17866E+002  -0.49597E+001   0.12983E+001  -0.88657E+000  -0.11884E-001   0.30529E+001
      36   0.19719E+002   0.29753E+001   0.96862E+000  -0.23470E+001   0.11085E+001  -0.13799E+001
      37   0.10955E+002  -0.93849E+000   0.31333E+001  -0.58770E+000   0.23389E+001   0.22826E+001
      38   0.21913E+001  -0.48523E+001   0.52981E+001   0.11717E+001  -0.42733E-010  -0.35940E-009
      39   0.10955E+002  -0.93849E+000   0.31333E+001  -0.58770E+000  -0.23389E+001  -0.22826E+001
      40   0.19719E+002   0.29753E+001   0.96862E+000  -0.23470E+001  -0.11085E+001   0.13799E+001
      41   0.18710E+002   0.42068E+001  -0.18553E+001   0.62579E+000   0.35503E+001  -0.10512E+001
      42   0.97648E+001  -0.41518E+000   0.47536E+000   0.16600E+001   0.48540E+001   0.33904E+001
      43   0.81993E+000  -0.50372E+001   0.28060E+001   0.26943E+001   0.92286E-011  -0.25463E-009
      44   0.97648E+001  -0.41518E+000   0.47536E+000   0.16600E+001  -0.48540E+001  -0.33904E+001
      45   0.18710E+002   0.42068E+001  -0.18553E+001   0.62579E+000  -0.35503E+001   0.10512E+001
      46   0.17675E+001   0.30337E+001   0.19486E+001   0.16057E+001  -0.23721E+001   0.70300E+001
      47  -0.99331E+000   0.64580E+000   0.24831E+001   0.22189E+000  -0.38287E+001   0.54338E+001
      48  -0.37541E+001  -0.17421E+001   0.30175E+001  -0.11619E+001   0.20226E-009  -0.46204E-009
      49  -0.99331E+000   0.64580E+000   0.24831E+001   0.22189E+000   0.38287E+001  -0.54338E+001
      50   0.17675E+001   0.30337E+001   0.19486E+001   0.16057E+001   0.23721E+001  -0.70300E+001
      51   0.58394E+001  -0.88635E+001   0.30875E+001  -0.75589E+000   0.96295E-002   0.95785E+000
      52   0.46383E+001  -0.71165E+001   0.51239E+001  -0.24623E+001  -0.10008E-002   0.40246E+000
      53   0.34371E+001  -0.53695E+001   0.71603E+001  -0.41688E+001   0.25903E-009  -0.15599E-009
      54   0.46383E+001  -0.71165E+001   0.51239E+001  -0.24623E+001   0.10008E-002  -0.40246E+000
      55   0.58394E+001  -0.88635E+001   0.30875E+001  -0.75589E+000  -0.96295E-002  -0.95785E+000
      56   0.58394E+001  -0.88635E+001   0.30875E+001   0.75589E+000  -0.96295E-002   0.95785E+000
      57   0.46383E+001  -0.71165E+001   0.51239E+001   0.24623E+001   0.10008E-002   0.40246E+000
      58   0.34371E+001  -0.53695E+001   0.71603E+001   0.41688E+001  -0.16969E-010  -0.47055E-009
      59   0.46383E+001  -0.71165E+001   0.51239E+001   0.24623E+001  -0.10008E-002  -0.40246E+000
      60   0.58394E+001  -0.88635E+001   0.30875E+001   0.75589E+000   0.96295E-002  -0.95785E+000
      61   0.17675E+001   0.30337E+001   0.19486E+001  -0.16057E+001   0.23721E+001   0.70300E+001
      62  -0.99331E+000   0.64580E+000   0.24831E+001  -0.22189E+000   0.38287E+001   0.54338E+001
      63  -0.37541E+001  -0.17421E+001   0.30175E+001   0.11619E+001  -0.11756E-009  -0.18837E-009
      64  -0.99331E+000   0.64580E+000   0.24831E+001  -0.22189E+000  -0.38287E+001  -0.54338E+001
      65   0.17675E+001   0.30337E+001   0.19486E+001  -0.16057E+001  -0.23721E+001  -0.70300E+001
      66   0.41935E+001  -0.28287E+000   0.34661E+001   0.11799E+001  -0.84675E+000   0.46481E+001
      67   0.19448E+001  -0.12597E+001   0.45011E+001  -0.67705E+000  -0.17509E+001   0.34311E+001
      68  -0.30395E+000  -0.22366E+001   0.55360E+001  -0.25340E+001   0.22389E-009  -0.31231E-009
      69   0.19448E+001  -0.12597E+001   0.45011E+001  -0.67705E+000   0.17509E+001  -0.34311E+001
      70   0.41935E+001  -0.28287E+000   0.34661E+001   0.11799E+001   0.84675E+000  -0.46481E+001
      71   0.16151E+001  -0.12250E+002   0.17065E+001  -0.31373E+001  -0.69335E+000   0.18668E+000
      72   0.26366E+000  -0.11655E+002   0.39301E+001  -0.31276E+001  -0.90941E+000  -0.37058E+000
      73  -0.10878E+001  -0.11061E+002   0.61537E+001  -0.31179E+001   0.97922E-010  -0.50178E-009
      74   0.26366E+000  -0.11655E+002   0.39301E+001  -0.31276E+001   0.90941E+000   0.37058E+000
      75   0.16151E+001  -0.12250E+002   0.17065E+001  -0.31373E+001   0.69335E+000  -0.18668E+000
      76  -0.18290E+001  -0.10372E+002   0.22218E+001  -0.33958E-009  -0.53975E-009   0.72382E+000
      77  -0.38663E+001  -0.12243E+002   0.41314E+001  -0.27619E-009  -0.46213E-009  -0.11765E+000
      78  -0.59036E+001  -0.14114E+002   0.60411E+001  -0.15679E-009  -0.24462E-009  -0.83235E-009
      79  -0.38663E+001  -0.12243E+002   0.41314E+001  -0.29572E-009  -0.18391E-010   0.11765E+000
      80  -0.18290E+001  -0.10372E+002   0.22218E+001  -0.49066E-009   0.67952E-010  -0.72382E+000
      81   0.16151E+001  -0.12250E+002   0.17065E+001   0.31373E+001   0.69335E+000   0.18668E+000
      82   0.26366E+000  -0.11655E+002   0.39301E+001   0.31276E+001   0.90941E+000  -0.37058E+000
      83  -0.10878E+001  -0.11061E+002   0.61537E+001   0.31179E+001  -0.21885E-009  -0.64970E-009
      84   0.26366E+000  -0.11655E+002   0.39301E+001   0.31276E+001  -0.90941E+000   0.37058E+000
      85   0.16151E+001  -0.12250E+002   0.17065E+001   0.31373E+001  -0.69335E+000  -0.18668E+000
      86   0.41935E+001  -0.28287E+000   0.34661E+001  -0.11799E+001   0.84675E+000   0.46481E+001
      87   0.19448E+001  -0.12597E+001   0.45011E+001   0.67705E+000   0.17509E+001   0.34311E+001
      88  -0.30395E+000  -0.22366E+001   0.55360E+001   0.25340E+001  -0.63174E-010  -0.32031E-009
      89   0.19448E+001  -0.12597E+001   0.45011E+001   0.67705E+000  -0.17509E+001  -0.34311E+001
      90   0.41935E+001  -0.28287E+000   0.34661E+001  -0.11799E+001  -0.84675E+000  -0.46481E+001
      91  -0.55993E+001   0.32618E+000   0.26070E+001   0.22849E+001   0.17664E+001   0.84431E+001
      92  -0.30205E+001   0.87735E+000   0.38412E+001   0.14163E+001  -0.21883E+000   0.38245E+001
      93  -0.44162E+000   0.14285E+001   0.50754E+001   0.54767E+000  -0.46384E-010  -0.45954E-009
      94  -0.30205E+001   0.87735E+000   0.38412E+001   0.14163E+001   0.21883E+000  -0.38245E+001
      95  -0.55993E+001   0.32618E+000   0.26070E+001   0.22849E+001  -0.17664E+001  -0.84431E+001
      96  -0.29542E+001  -0.16939E+001   0.29201E+001  -0.45575E+000   0.11137E+001   0.52956E+001
      97  -0.51693E+000   0.84796E+000   0.42548E+001  -0.16999E+001   0.30945E+000   0.20441E+001
      98   0.19204E+001   0.33898E+001   0.55895E+001  -0.29440E+001   0.59517E-010  -0.32529E-009
      99  -0.51693E+000   0.84796E+000   0.42548E+001  -0.16999E+001  -0.30945E+000  -0.20441E+001
     100  -0.29542E+001  -0.16939E+001   0.29201E+001  -0.45575E+000  -0.11137E+001  -0.52956E+001
     101   0.11538E+001  -0.50094E+001   0.31050E+001  -0.14409E+001   0.34252E+000   0.56698E+000
     102   0.32380E+001  -0.98360E+000   0.51181E+001  -0.27912E+001   0.72186E+000  -0.50199E+000
     103   0.53222E+001   0.30422E+001   0.71312E+001  -0.41415E+001   0.42290E-010  -0.15229E-009
     104   0.32380E+001  -0.98360E+000   0.51181E+001  -0.27912E+001  -0.72186E+000   0.50199E+000
     105   0.11538E+001  -0.50094E+001   0.31050E+001  -0.14409E+001  -0.34252E+000  -0.56698E+000
     106   0.41671E+001   0.12397E+000   0.29266E+001  -0.60988E-009  -0.58448E-010   0.22084E+000
     107   0.53180E+001  -0.25200E+001   0.77568E+001  -0.41527E-009  -0.42327E-010  -0.29430E+000
     108   0.64690E+001  -0.51639E+001   0.12587E+002  -0.16652E-009   0.46014E-010  -0.70082E-009
     109   0.53180E+001  -0.25200E+001   0.77568E+001  -0.13906E-009   0.14836E-009   0.29430E+000
     110   0.41671E+001   0.12397E+000   0.29266E+001  -0.16572E-009   0.17848E-009  -0.22084E+000
     111   0.11538E+001  -0.50094E+001   0.31050E+001   0.14409E+001  -0.34252E+000   0.56698E+000
     112   0.32380E+001  -0.98360E+000   0.51181E+001   0.27912E+001  -0.72186E+000  -0.50199E+000
     113   0.53222E+001   0.30422E+001   0.71312E+001   0.41415E+001  -0.80632E-011  -0.64232E-009
     114   0.32380E+001  -0.98360E+000   0.51181E+001   0.27912E+001   0.72186E+000   0.50199E+000
     115   0.11538E+001  -0.50094E+001   0.31050E+001   0.14409E+001   0.34252E+000  -0.56698E+000
     116  -0.29542E+001  -0.16939E+001   0.29201E+001   0.45575E+000  -0.11137E+001   0.52956E+001
     117  -0.51693E+000   0.84796E+000   0.42548E+001   0.16999E+001  -0.30945E+000   0.20441E+001
     118   0.19204E+001   0.33898E+001   0.55895E+001   0.29440E+001  -0.12410E-010  -0.40627E-009
     119  -0.51693E+000   0.84796E+000   0.42548E+001   0.16999E+001   0.30945E+000  -0.20441E+001
     120  -0.29542E+001  -0.16939E+001   0.29201E+001   0.45575E+000   0.11137E+001  -0.52956E+001
     121  -0.55993E+001   0.32618E+000   0.26070E+001  -0.22849E+001  -0.17664E+001   0.84431E+001
     122  -0.30205E+001   0.87735E+000   0.38412E+001  -0.14163E+001   0.21883E+000   0.38245E+001
     123  -0.44162E+000   0.14285E+001   0.50754E+001  -0.54767E+000  -0.88088E-010  -0.19194E-009
     124  -0.30205E+001   0.87735E+000   0.38412E+001  -0.14163E+001  -0.21883E+000  -0.38245E+001
     125  -0.55993E+001   0.32618E+000   0.26070E+001  -0.22849E+001   0.17664E+001  -0.84431E+001
     126   0.33919E+001  -0.30904E+001   0.29517E+001   0.16729E+000   0.80509E+000  -0.39659E+000
     127   0.49037E+001  -0.26529E+001   0.66623E+001   0.86542E-001   0.59782E+000  -0.78102E+000
     128   0.64155E+001  -0.22153E+001   0.10373E+002   0.57980E-002  -0.34629E-010  -0.42449E-009
     129   0.49037E+001  -0.26529E+001   0.66623E+001   0.86542E-001  -0.59782E+000   0.78102E+000
     130   0.33919E+001  -0.30904E+001   0.29517E+001   0.16729E+000  -0.80509E+000   0.39659E+000
     131   0.33919E+001  -0.30904E+001   0.29517E+001  -0.16729E+000  -0.80509E+000  -0.39659E+000
     132   0.49037E+001  -0.26529E+001   0.66623E+001  -0.86542E-001  -0.59782E+000  -0.78102E+000
     133   0.64155E+001  -0.22153E+001   0.10373E+002  -0.57980E-002   0.52692E-012  -0.66511E-009
     134   0.49037E+001  -0.26529E+001   0.66623E+001  -0.86542E-001   0.59782E+000   0.78102E+000
     135   0.33919E+001  -0.30904E+001   0.29517E+001  -0.16729E+000   0.80509E+000   0.39659E+000
     136   0.27934E+002   0.17892E+002   0.44595E+001  -0.29023E+000  -0.94839E-001  -0.13740E+001
     137   0.24733E+002   0.16951E+002   0.92300E+001  -0.10974E+000  -0.13691E+000   0.16403E+001
     138   0.21532E+002   0.16009E+002   0.14001E+002   0.70742E-001  -0.90816E-011  -0.12127E-009
     139   0.24733E+002   0.16951E+002   0.92300E+001  -0.10974E+000   0.13691E+000  -0.16403E+001
     140   0.27934E+002   0.17892E+002   0.44595E+001  -0.29023E+000   0.94839E-001   0.13740E+001
     141   0.27934E+002   0.17892E+002   0.44595E+001   0.29023E+000   0.94839E-001  -0.13740E+001
     142   0.24733E+002   0.16951E+002   0.92300E+001   0.10974E+000   0.13691E+000   0.16403E+001
     143   0.21532E+002   0.16009E+002   0.14001E+002  -0.70742E-001   0.19772E-009   0.18272E-010
     144   0.24733E+002   0.16951E+002   0.92300E+001   0.10974E+000  -0.13691E+000  -0.16403E+001
     145   0.27934E+002   0.17892E+002   0.44595E+001   0.29023E+000  -0.94839E-001   0.13740E+001
     146   0.32735E+002   0.17383E+001   0.31905E+001   0.12484E+001   0.34876E+001   0.12240E+001
     147   0.30687E+002   0.18921E+001   0.53197E+001   0.10093E+001   0.23028E+001   0.27263E+001
     148   0.28639E+002   0.20458E+001   0.74488E+001   0.77014E+000  -0.11874E-009  -0.54345E-010
     149   0.30687E+002   0.18921E+001   0.53197E+001   0.10093E+001  -0.23028E+001  -0.27263E+001
     150   0.32735E+002   0.17383E+001   0.31905E+001   0.12484E+001  -0.34876E+001  -0.12240E+001
     151   0.29269E+002   0.57714E+001   0.22146E+001   0.13681E+001   0.20398E+001   0.59268E+000
     152   0.27263E+002   0.73544E+001   0.42699E+001   0.93026E+000   0.18889E+001   0.25658E+001
     153   0.25257E+002   0.89374E+001   0.63252E+001   0.49241E+000  -0.16754E-009  -0.60210E-010
     154   0.27263E+002   0.73544E+001   0.42699E+001   0.93026E+000  -0.18889E+001  -0.25658E+001
     155   0.29269E+002   0.57714E+001   0.22146E+001   0.13681E+001  -0.20398E+001  -0.59268E+000
     156   0.24536E+002   0.11895E+002   0.19809E+001   0.46626E+000   0.95133E-001  -0.85794E+000
     157   0.22129E+002   0.14429E+002   0.44811E+001   0.48438E-001   0.68122E+000   0.19030E+001
     158   0.19722E+002   0.16963E+002   0.69814E+001  -0.36938E+000  -0.21404E-009  -0.14756E-009
     159   0.22129E+002   0.14429E+002   0.44811E+001   0.48438E-001  -0.68122E+000  -0.19030E+001
     160   0.24536E+002   0.11895E+002   0.19809E+001   0.46626E+000  -0.95133E-001   0.85794E+000
     161   0.32599E+002   0.21798E+002   0.61959E+001   0.43173E-010   0.15571E-009  -0.10709E+001
     162   0.29048E+002   0.17860E+002   0.12718E+002   0.26042E-010   0.24170E-009   0.18797E+001
     163   0.25496E+002   0.13922E+002   0.19240E+002   0.17230E-009   0.26933E-009   0.15911E-009
     164   0.29048E+002   0.17860E+002   0.12718E+002   0.47809E-009   0.24041E-009  -0.18797E+001
     165   0.32599E+002   0.21798E+002   0.61959E+001   0.62051E-009   0.26984E-009   0.10709E+001
     166   0.24536E+002   0.11895E+002   0.19809E+001  -0.46626E+000  -0.95133E-001  -0.85794E+000
     167   0.22129E+002   0.14429E+002   0.44811E+001  -0.48438E-001  -0.68122E+000   0.19030E+001
     168   0.19722E+002   0.16963E+002   0.69814E+001   0.36938E+000   0.35048E-010  -0.52556E-009
     169   0.22129E+002   0.14429E+002   0.44811E+001  -0.48438E-001   0.68122E+000  -0.19030E+001
     170   0.24536E+002   0.11895E+002   0.19809E+001  -0.46626E+000   0.95133E-001   0.85794E+000
     171   0.29269E+002   0.57714E+001   0.22146E+001  -0.13681E+001  -0.20398E+001   0.59268E+000
     172   0.27263E+002   0.73544E+001   0.42699E+001  -0.93026E+000  -0.18889E+001   0.25658E+001
     173   0.25257E+002   0.89374E+001   0.63252E+001  -0.49241E+000   0.80972E-010  -0.43471E-009
     174   0.27263E+002   0.73544E+001   0.42699E+001  -0.93026E+000   0.18889E+001  -0.25658E+001
     175   0.29269E+002   0.57714E+001   0.22146E+001  -0.13681E+001   0.20398E+001  -0.59268E+000
     176   0.32735E+002   0.17383E+001   0.31905E+001  -0.12484E+001  -0.34876E+001   0.12240E+001
     177   0.30687E+002   0.18921E+001   0.53197E+001  -0.10093E+001  -0.23028E+001   0.27263E+001
     178   0.28639E+002   0.20458E+001   0.74488E+001  -0.77014E+000   0.14221E-009  -0.11346E-009
     179   0.30687E+002   0.18921E+001   0.53197E+001  -0.10093E+001   0.23028E+001  -0.27263E+001
     180   0.32735E+002   0.17383E+001   0.31905E+001  -0.12484E+001   0.34876E+001  -0.12240E+001
     181   0.49283E+002   0.84800E+001   0.36903E+001   0.26929E+001   0.19106E+001   0.52602E+001
     182   0.48765E+002   0.84656E+001   0.39084E+001   0.24316E+001   0.22759E+001   0.66786E+001
     183   0.48248E+002   0.84512E+001   0.41264E+001   0.21703E+001  -0.26207E-009   0.70461E-010
     184   0.48765E+002   0.84656E+001   0.39084E+001   0.24316E+001  -0.22759E+001  -0.66786E+001
     185   0.49283E+002   0.84800E+001   0.36903E+001   0.26929E+001  -0.19106E+001  -0.52602E+001
     186   0.34223E+002   0.34054E+002   0.72633E+001   0.31844E-009   0.23261E-009   0.58630E+001
     187   0.33618E+002   0.32321E+002   0.11774E+002   0.16983E-009   0.30754E-009   0.63551E+001
     188   0.33013E+002   0.30587E+002   0.16285E+002   0.20113E-009   0.25098E-009   0.58587E-009
     189   0.33618E+002   0.32321E+002   0.11774E+002   0.66954E-009   0.10928E-010  -0.63551E+001
     190   0.34223E+002   0.34054E+002   0.72633E+001   0.95805E-009  -0.97639E-010  -0.58630E+001
     191   0.49283E+002   0.84800E+001   0.36903E+001  -0.26929E+001  -0.19106E+001   0.52602E+001
     192   0.48765E+002   0.84656E+001   0.39084E+001  -0.24316E+001  -0.22759E+001   0.66786E+001
     193   0.48248E+002   0.84512E+001   0.41264E+001  -0.21703E+001   0.68253E-010  -0.15864E-009
     194   0.48765E+002   0.84656E+001   0.39084E+001  -0.24316E+001   0.22759E+001  -0.66786E+001
     195   0.49283E+002   0.84800E+001   0.36903E+001  -0.26929E+001   0.19106E+001  -0.52602E+001
     196   0.55296E+002   0.37033E+001   0.57885E+001   0.22097E+001   0.26634E+001   0.49038E+001
     197   0.54560E+002   0.33868E+001   0.55476E+001   0.16218E+001   0.27061E+001   0.65270E+001
     198   0.53824E+002   0.30703E+001   0.53067E+001   0.10339E+001  -0.88226E-010   0.99190E-010
     199   0.54560E+002   0.33868E+001   0.55476E+001   0.16218E+001  -0.27061E+001  -0.65270E+001
     200   0.55296E+002   0.37033E+001   0.57885E+001   0.22097E+001  -0.26634E+001  -0.49038E+001
     201   0.39448E+002   0.17135E+002   0.23881E+001   0.14898E+000  -0.31064E-001   0.59521E+001
     202   0.39085E+002   0.18030E+002   0.36214E+001   0.44222E+000   0.51631E+000   0.68800E+001
     203   0.38721E+002   0.18926E+002   0.48546E+001   0.73545E+000  -0.32623E-009   0.73148E-010
     204   0.39085E+002   0.18030E+002   0.36214E+001   0.44222E+000  -0.51631E+000  -0.68800E+001
     205   0.39448E+002   0.17135E+002   0.23881E+001   0.14898E+000   0.31064E-001  -0.59521E+001
     206   0.34925E+002   0.27533E+002   0.52237E+001  -0.30135E+001  -0.11155E+001   0.60753E+001
     207   0.34408E+002   0.27418E+002   0.83738E+001  -0.26991E+001  -0.92147E+000   0.66425E+001
     208   0.33891E+002   0.27303E+002   0.11524E+002  -0.23848E+001   0.74329E-013   0.27977E-009
     209   0.34408E+002   0.27418E+002   0.83738E+001  -0.26991E+001   0.92147E+000  -0.66425E+001
     210   0.34925E+002   0.27533E+002   0.52237E+001  -0.30135E+001   0.11155E+001  -0.60753E+001
     211   0.34925E+002   0.27533E+002   0.52237E+001   0.30135E+001   0.11155E+001   0.60753E+001
     212   0.34408E+002   0.27418E+002   0.83738E+001   0.26991E+001   0.92147E+000   0.66425E+001
     213   0.33891E+002   0.27303E+002   0.11524E+002   0.23848E+001   0.17795E-009   0.50102E-009
     214   0.34408E+002   0.27418E+002   0.83738E+001   0.26991E+001  -0.92147E+000  -0.66425E+001
     215   0.34925E+002   0.27533E+002   0.52237E+001   0.30135E+001  -0.11155E+001  -0.60753E+001
     216   0.39448E+002   0.17135E+002   0.23881E+001  -0.14898E+000   0.31064E-001   0.59521E+001
     217   0.39085E+002   0.18030E+002   0.36214E+001  -0.44222E+000  -0.51631E+000   0.68800E+001
     218   0.38721E+002   0.18926E+002   0.48546E+001  -0.73545E+000   0.45400E-010  -0.48762E-010
     219   0.39085E+002   0.18030E+002   0.36214E+001  -0.44222E+000   0.51631E+000  -0.68800E+001
     220   0.39448E+002   0.17135E+002   0.23881E+001  -0.14898E+000  -0.31064E-001  -0.59521E+001
     221   0.55296E+002   0.37033E+001   0.57885E+001  -0.22097E+001  -0.26634E+001   0.49038E+001
     222   0.54560E+002   0.33868E+001   0.55476E+001  -0.16218E+001  -0.27061E+001   0.65270E+001
     223   0.53824E+002   0.30703E+001   0.53067E+001  -0.10339E+001   0.11635E-009   0.65525E-010
     224   0.54560E+002   0.33868E+001   0.55476E+001  -0.16218E+001   0.27061E+001  -0.65270E+001
     225   0.55296E+002   0.37033E+001   0.57885E+001  -0.22097E+001   0.26634E+001  -0.49038E+001
     226   0.39473E+002  -0.87437E+000   0.19178E+001   0.11423E+000   0.18700E+001   0.59108E+001
     227   0.44945E+002  -0.85349E-001   0.10542E+001   0.31446E+000   0.19451E+001   0.40605E+001
     228   0.50417E+002   0.70367E+000   0.19069E+000   0.51469E+000  -0.14361E-010  -0.18588E-010
     229   0.44945E+002  -0.85349E-001   0.10542E+001   0.31446E+000  -0.19451E+001  -0.40605E+001
     230   0.39473E+002  -0.87437E+000   0.19178E+001   0.11423E+000  -0.18700E+001  -0.59108E+001
     231   0.38571E+002   0.38307E-001   0.11261E+001  -0.10935E+001   0.18885E+001   0.65699E+001
     232   0.43769E+002   0.73604E+000   0.33529E+000  -0.58168E+000   0.16850E+001   0.44424E+001
     233   0.48967E+002   0.14338E+001  -0.45552E+000  -0.69907E-001  -0.10700E-009  -0.25877E-010
     234   0.43769E+002   0.73604E+000   0.33529E+000  -0.58168E+000  -0.16850E+001  -0.44424E+001
     235   0.38571E+002   0.38307E-001   0.11261E+001  -0.10935E+001  -0.18885E+001  -0.65699E+001
     236   0.35066E+002   0.43897E+001   0.83203E+000  -0.16295E+001   0.90253E+000   0.76721E+001
     237   0.40065E+002   0.51740E+001   0.26556E+000  -0.87848E+000   0.55656E+000   0.50630E+001
     238   0.45064E+002   0.59583E+001  -0.30091E+000  -0.12745E+000  -0.24746E-009   0.10766E-009
     239   0.40065E+002   0.51740E+001   0.26556E+000  -0.87848E+000  -0.55656E+000  -0.50630E+001
     240   0.35066E+002   0.43897E+001   0.83203E+000  -0.16295E+001  -0.90253E+000  -0.76721E+001
     241   0.27949E+002   0.11772E+002   0.15636E+001  -0.17245E+001  -0.17758E+000   0.76104E+001
     242   0.33089E+002   0.12787E+002   0.15211E+001  -0.14454E+001  -0.27390E+000   0.48196E+001
     243   0.38228E+002   0.13801E+002   0.14785E+001  -0.11664E+001  -0.16212E-009   0.19663E-009
     244   0.33089E+002   0.12787E+002   0.15211E+001  -0.14454E+001   0.27390E+000  -0.48196E+001
     245   0.27949E+002   0.11772E+002   0.15636E+001  -0.17245E+001   0.17758E+000  -0.76104E+001
     246   0.23435E+002   0.15716E+002   0.17976E+001   0.58232E-011   0.29222E-009   0.71058E+001
     247   0.28641E+002   0.16783E+002   0.21274E+001  -0.19040E-009   0.14638E-009   0.43374E+001
     248   0.33847E+002   0.17850E+002   0.24572E+001  -0.39059E-009   0.67639E-010   0.13217E-009
     249   0.28641E+002   0.16783E+002   0.21274E+001  -0.11703E-009  -0.19152E-009  -0.43374E+001
     250   0.23435E+002   0.15716E+002   0.17976E+001   0.16050E-009  -0.51776E-009  -0.71058E+001
     251   0.27949E+002   0.11772E+002   0.15636E+001   0.17245E+001   0.17758E+000   0.76104E+001
     252   0.33089E+002   0.12787E+002   0.15211E+001   0.14454E+001   0.27390E+000   0.48196E+001
     253   0.38228E+002   0.13801E+002   0.14785E+001   0.11664E+001   0.76873E-010   0.25460E-009
     254   0.33089E+002   0.12787E+002   0.15211E+001   0.14454E+001  -0.27390E+000  -0.48196E+001
     255   0.27949E+002   0.11772E+002   0.15636E+001   0.17245E+001  -0.17758E+000  -0.76104E+001
     256   0.35066E+002   0.43897E+001   0.83203E+000   0.16295E+001  -0.90253E+000   0.76721E+001
     257   0.40065E+002   0.51740E+001   0.26556E+000   0.87848E+000  -0.55656E+000   0.50630E+001
     258   0.45064E+002   0.59583E+001  -0.30091E+000   0.12745E+000   0.68794E-010   0.28035E-009
     259   0.40065E+002   0.51740E+001   0.26556E+000   0.87848E+000   0.55656E+000  -0.50630E+001
     260   0.35066E+002   0.43897E+001   0.83203E+000   0.16295E+001   0.90253E+000  -0.76721E+001
     261   0.38571E+002   0.38307E-001   0.11261E+001   0.10935E+001  -0.18885E+001   0.65699E+001
     262   0.43769E+002   0.73604E+000   0.33529E+000   0.58168E+000  -0.16850E+001   0.44424E+001
     263   0.48967E+002   0.14338E+001  -0.45552E+000   0.69907E-001   0.72464E-010   0.21699E-009
     264   0.43769E+002   0.73604E+000   0.33529E+000   0.58168E+000   0.16850E+001  -0.44424E+001
     265   0.38571E+002   0.38307E-001   0.11261E+001   0.10935E+001   0.18885E+001  -0.65699E+001
     266   0.39473E+002  -0.87437E+000   0.19178E+001  -0.11423E+000  -0.18700E+001   0.59108E+001
     267   0.44945E+002  -0.85349E-001   0.10542E+001  -0.31446E+000  -0.19451E+001   0.40605E+001
     268   0.50417E+002   0.70367E+000   0.19069E+000  -0.51469E+000  -0.31513E-011   0.26291E-009
     269   0.44945E+002  -0.85349E-001   0.10542E+001  -0.31446E+000   0.19451E+001  -0.40605E+001
     270   0.39473E+002  -0.87437E+000   0.19178E+001  -0.11423E+000   0.18700E+001  -0.59108E+001
     271   0.36515E+002  -0.11154E+002   0.48202E+000   0.18992E+001   0.32689E+000   0.16695E+001
     272   0.39997E+002  -0.10410E+002  -0.34010E+000   0.20124E+001   0.28453E+000   0.51111E+000
     273   0.43479E+002  -0.96652E+001  -0.11622E+001   0.21256E+001  -0.16442E-009   0.27435E-010
     274   0.39997E+002  -0.10410E+002  -0.34010E+000   0.20124E+001  -0.28453E+000  -0.51111E+000
     275   0.36515E+002  -0.11154E+002   0.48202E+000   0.18992E+001  -0.32689E+000  -0.16695E+001
     276   0.36515E+002  -0.11154E+002   0.48202E+000  -0.18992E+001  -0.32689E+000   0.16695E+001
     277   0.39997E+002  -0.10410E+002  -0.34010E+000  -0.20124E+001  -0.28453E+000   0.51111E+000
     278   0.43479E+002  -0.96652E+001  -0.11622E+001  -0.21256E+001   0.41112E-010  -0.16126E-009
     279   0.39997E+002  -0.10410E+002  -0.34010E+000  -0.20124E+001   0.28453E+000  -0.51111E+000
     280   0.36515E+002  -0.11154E+002   0.48202E+000  -0.18992E+001   0.32689E+000  -0.16695E+001
     281   0.35080E+002  -0.34504E+001   0.94574E+000  -0.16179E+001  -0.72950E+000   0.40299E+000
     282   0.37116E+002  -0.28483E+001   0.13754E+001  -0.12187E+001  -0.30996E+000  -0.25389E+000
     283   0.39152E+002  -0.22463E+001   0.18050E+001  -0.81951E+000   0.96218E-010  -0.11973E-009
     284   0.37116E+002  -0.28483E+001   0.13754E+001  -0.12187E+001   0.30996E+000   0.25389E+000
     285   0.35080E+002  -0.34504E+001   0.94574E+000  -0.16179E+001   0.72950E+000  -0.40299E+000
     286   0.36242E+002  -0.53249E+001   0.15822E+001  -0.12481E+001  -0.12570E-001   0.90646E+000
     287   0.38456E+002  -0.48883E+001   0.16074E+001  -0.87224E+000   0.11786E+000   0.52421E-001
     288   0.40670E+002  -0.44517E+001   0.16326E+001  -0.49641E+000   0.92363E-010  -0.19458E-009
     289   0.38456E+002  -0.48883E+001   0.16074E+001  -0.87224E+000  -0.11786E+000  -0.52421E-001
     290   0.36242E+002  -0.53249E+001   0.15822E+001  -0.12481E+001   0.12570E-001  -0.90646E+000
     291   0.37041E+002  -0.82027E+001   0.16563E+001   0.99766E+000   0.69196E+000   0.15185E+001
     292   0.39899E+002  -0.79163E+001   0.11540E+001   0.12883E+001   0.47476E+000   0.41728E+000
     293   0.42758E+002  -0.76300E+001   0.65167E+000   0.15790E+001  -0.27623E-010  -0.89553E-010
     294   0.39899E+002  -0.79163E+001   0.11540E+001   0.12883E+001  -0.47476E+000  -0.41728E+000
     295   0.37041E+002  -0.82027E+001   0.16563E+001   0.99766E+000  -0.69196E+000  -0.15185E+001
     296   0.36352E+002  -0.13102E+002  -0.12971E+000   0.26467E-010   0.47483E-010   0.17120E+001
     297   0.39991E+002  -0.11915E+002  -0.11486E+001  -0.18811E-009  -0.22156E-010   0.54639E+000
     298   0.43631E+002  -0.10728E+002  -0.21676E+001  -0.60378E-009  -0.54823E-010  -0.19824E-009
     299   0.39991E+002  -0.11915E+002  -0.11486E+001  -0.61525E-009  -0.94533E-010  -0.54639E+000
     300   0.36352E+002  -0.13102E+002  -0.12971E+000  -0.42564E-009  -0.17121E-009  -0.17120E+001
     301   0.37041E+002  -0.82027E+001   0.16563E+001  -0.99766E+000  -0.69196E+000   0.15185E+001
     302   0.39899E+002  -0.79163E+001   0.11540E+001  -0.12883E+001  -0.47476E+000   0.41728E+000
     303   0.42758E+002  -0.76300E+001   0.65167E+000  -0.15790E+001   0.83032E-010   0.17204E-009
     304   0.39899E+002  -0.79163E+001   0.11540E+001  -0.12883E+001   0.47476E+000  -0.41728E+000
     305   0.37041E+002  -0.82027E+001   0.16563E+001  -0.99766E+000   0.69196E+000  -0.15185E+001
     306   0.36242E+002  -0.53249E+001   0.15822E+001   0.12481E+001   0.12570E-001   0.90646E+000
     307   0.38456E+002  -0.48883E+001   0.16074E+001   0.87224E+000  -0.11786E+000   0.52421E-001
     308   0.40670E+002  -0.44517E+001   0.16326E+001   0.49641E+000   0.64988E-010   0.30162E-009
     309   0.38456E+002  -0.48883E+001   0.16074E+001   0.87224E+000   0.11786E+000  -0.52421E-001
     310   0.36242E+002  -0.53249E+001   0.15822E+001   0.12481E+001  -0.12570E-001  -0.90646E+000
     311   0.35080E+002  -0.34504E+001   0.94574E+000   0.16179E+001   0.72950E+000   0.40299E+000
     312   0.37116E+002  -0.28483E+001   0.13754E+001   0.12187E+001   0.30996E+000  -0.25389E+000
     313   0.39152E+002  -0.22463E+001   0.18050E+001   0.81951E+000  -0.29299E-010   0.29768E-009
     314   0.37116E+002  -0.28483E+001   0.13754E+001   0.12187E+001  -0.30996E+000   0.25389E+000
     315   0.35080E+002  -0.34504E+001   0.94574E+000   0.16179E+001  -0.72950E+000  -0.40299E+000
     316   0.29169E+002  -0.23805E+001   0.34987E+001   0.11497E+001  -0.10785E+001   0.10405E-001
     317   0.26923E+002  -0.24419E+001   0.56581E+001   0.77814E+000  -0.51724E+000   0.98028E+000
     318   0.24678E+002  -0.25033E+001   0.78175E+001   0.40658E+000  -0.54893E-010  -0.19018E-009
     319   0.26923E+002  -0.24419E+001   0.56581E+001   0.77814E+000   0.51724E+000  -0.98028E+000
     320   0.29169E+002  -0.23805E+001   0.34987E+001   0.11497E+001   0.10785E+001  -0.10405E-001
     321   0.30619E+002  -0.74219E+001   0.36270E+001   0.24953E+001  -0.43714E+000  -0.21072E+000
     322   0.28207E+002  -0.79592E+001   0.52164E+001   0.19818E+001  -0.12179E-001   0.78036E+000
     323   0.25795E+002  -0.84966E+001   0.68058E+001   0.14682E+001   0.43542E-010  -0.35861E-009
     324   0.28207E+002  -0.79592E+001   0.52164E+001   0.19818E+001   0.12179E-001  -0.78036E+000
     325   0.30619E+002  -0.74219E+001   0.36270E+001   0.24953E+001   0.43714E+000   0.21072E+000
     326   0.36171E+002  -0.16735E+002   0.36941E+001   0.28323E+001   0.31170E+000  -0.53483E+000
     327   0.33706E+002  -0.17517E+002   0.46248E+001   0.22906E+001   0.47451E+000   0.46703E+000
     328   0.31241E+002  -0.18299E+002   0.55554E+001   0.17490E+001   0.10847E-009  -0.41741E-009
     329   0.33706E+002  -0.17517E+002   0.46248E+001   0.22906E+001  -0.47451E+000  -0.46703E+000
     330   0.36171E+002  -0.16735E+002   0.36941E+001   0.28323E+001  -0.31170E+000   0.53483E+000
     331   0.43579E+002  -0.25786E+002   0.30701E+001   0.15350E+001   0.24253E-001  -0.52997E+000
     332   0.41345E+002  -0.26282E+002   0.39947E+001   0.12861E+001   0.13833E+000   0.47077E+000
     333   0.39110E+002  -0.26778E+002   0.49192E+001   0.10372E+001   0.24227E-010  -0.22702E-009
     334   0.41345E+002  -0.26282E+002   0.39947E+001   0.12861E+001  -0.13833E+000  -0.47077E+000
     335   0.43579E+002  -0.25786E+002   0.30701E+001   0.15350E+001  -0.24253E-001   0.52997E+000
     336   0.46883E+002  -0.30565E+002   0.25072E+001   0.10009E-010  -0.87099E-010  -0.42212E+000
     337   0.44767E+002  -0.31006E+002   0.35145E+001  -0.12244E-009  -0.68154E-010   0.58792E+000
     338   0.42650E+002  -0.31448E+002   0.45218E+001  -0.38131E-009  -0.34130E-010  -0.26705E-009
     339   0.44767E+002  -0.31006E+002   0.35145E+001  -0.30637E-009   0.17243E-009  -0.58792E+000
     340   0.46883E+002  -0.30565E+002   0.25072E+001  -0.10500E-009   0.36391E-009   0.42212E+000
     341   0.43579E+002  -0.25786E+002   0.30701E+001  -0.15350E+001  -0.24253E-001  -0.52997E+000
     342   0.41345E+002  -0.26282E+002   0.39947E+001  -0.12861E+001  -0.13833E+000   0.47077E+000
     343   0.39110E+002  -0.26778E+002   0.49192E+001  -0.10372E+001   0.54355E-010  -0.25665E-009
     344   0.41345E+002  -0.26282E+002   0.39947E+001  -0.12861E+001   0.13833E+000  -0.47077E+000
     345   0.43579E+002  -0.25786E+002   0.30701E+001  -0.15350E+001   0.24253E-001   0.52997E+000
     346   0.36171E+002  -0.16735E+002   0.36941E+001  -0.28323E+001  -0.31170E+000  -0.53483E+000
     347   0.33706E+002  -0.17517E+002   0.46248E+001  -0.22906E+001  -0.47451E+000   0.46703E+000
     348   0.31241E+002  -0.18299E+002   0.55554E+001  -0.17490E+001   0.59684E-010  -0.17274E-010
     349   0.33706E+002  -0.17517E+002   0.46248E+001  -0.22906E+001   0.47451E+000  -0.46703E+000
     350   0.36171E+002  -0.16735E+002   0.36941E+001  -0.28323E+001   0.31170E+000   0.53483E+000
     351   0.30619E+002  -0.74219E+001   0.36270E+001  -0.24953E+001   0.43714E+000  -0.21072E+000
     352   0.28207E+002  -0.79592E+001   0.52164E+001  -0.19818E+001   0.12179E-001   0.78036E+000
     353   0.25795E+002  -0.84966E+001   0.68058E+001  -0.14682E+001   0.77929E-011   0.54604E-010
     354   0.28207E+002  -0.79592E+001   0.52164E+001  -0.19818E+001  -0.12179E-001  -0.78036E+000
     355   0.30619E+002  -0.74219E+001   0.36270E+001  -0.24953E+001  -0.43714E+000   0.21072E+000
     356   0.29169E+002  -0.23805E+001   0.34987E+001  -0.11497E+001   0.10785E+001   0.10405E-001
     357   0.26923E+002  -0.24419E+001   0.56581E+001  -0.77814E+000   0.51724E+000   0.98028E+000
     358   0.24678E+002  -0.25033E+001   0.78175E+001  -0.40658E+000   0.46677E-010   0.18295E-010
     359   0.26923E+002  -0.24419E+001   0.56581E+001  -0.77814E+000  -0.51724E+000  -0.98028E+000
     360   0.29169E+002  -0.23805E+001   0.34987E+001  -0.11497E+001  -0.10785E+001  -0.10405E-001
     361  -0.18263E-001  -0.75857E+001   0.69362E+000   0.13139E+001   0.60521E+000   0.28202E+001
     362  -0.46868E+000  -0.73362E+001   0.29097E+001   0.10839E+001   0.62403E+000   0.29202E+001
     363  -0.91909E+000  -0.70866E+001   0.51259E+001   0.85383E+000  -0.17008E-009  -0.10913E-010
     364  -0.46868E+000  -0.73362E+001   0.29097E+001   0.10839E+001  -0.62403E+000  -0.29202E+001
     365  -0.18263E-001  -0.75857E+001   0.69362E+000   0.13139E+001  -0.60521E+000  -0.28202E+001
     366   0.56791E+001  -0.14232E+002   0.92603E+000   0.64155E+000   0.64275E+000   0.25678E+001
     367   0.50370E+001  -0.14053E+002   0.31541E+001   0.40832E+000   0.65158E+000   0.27152E+001
     368   0.43949E+001  -0.13874E+002   0.53822E+001   0.17509E+000  -0.78973E-010  -0.20279E-009
     369   0.50370E+001  -0.14053E+002   0.31541E+001   0.40832E+000  -0.65158E+000  -0.27152E+001
     370   0.56791E+001  -0.14232E+002   0.92603E+000   0.64155E+000  -0.64275E+000  -0.25678E+001
     371   0.17899E+002  -0.24748E+002   0.27035E+001  -0.12827E+001   0.48845E+000   0.24432E+001
     372   0.16667E+002  -0.24779E+002   0.47000E+001  -0.15154E+001   0.45799E+000   0.25524E+001
     373   0.15436E+002  -0.24810E+002   0.66964E+001  -0.17482E+001   0.57881E-010  -0.45826E-009
     374   0.16667E+002  -0.24779E+002   0.47000E+001  -0.15154E+001  -0.45799E+000  -0.25524E+001
     375   0.17899E+002  -0.24748E+002   0.27035E+001  -0.12827E+001  -0.48845E+000  -0.24432E+001
     376   0.30165E+002  -0.34598E+002   0.47821E+001  -0.37783E-010   0.34826E-010   0.27192E+001
     377   0.28099E+002  -0.35651E+002   0.66301E+001  -0.10945E-009   0.10358E-010   0.26661E+001
     378   0.26033E+002  -0.36704E+002   0.84781E+001  -0.16122E-009   0.47667E-010  -0.38162E-009
     379   0.28099E+002  -0.35651E+002   0.66301E+001   0.32942E-011   0.95344E-010  -0.26661E+001
     380   0.30165E+002  -0.34598E+002   0.47821E+001   0.14792E-009   0.81244E-010  -0.27192E+001
     381   0.17899E+002  -0.24748E+002   0.27035E+001   0.12827E+001  -0.48845E+000   0.24432E+001
     382   0.16667E+002  -0.24779E+002   0.47000E+001   0.15154E+001  -0.45799E+000   0.25524E+001
     383   0.15436E+002  -0.24810E+002   0.66964E+001   0.17482E+001   0.13830E-010  -0.28584E-009
     384   0.16667E+002  -0.24779E+002   0.47000E+001   0.15154E+001   0.45799E+000  -0.25524E+001
     385   0.17899E+002  -0.24748E+002   0.27035E+001   0.12827E+001   0.48845E+000  -0.24432E+001
     386   0.56791E+001  -0.14232E+002   0.92603E+000  -0.64155E+000  -0.64275E+000   0.25678E+001
     387   0.50370E+001  -0.14053E+002   0.31541E+001  -0.40832E+000  -0.65158E+000   0.27152E+001
     388   0.43949E+001  -0.13874E+002   0.53822E+001  -0.17509E+000   0.19921E-010  -0.15400E-009
     389   0.50370E+001  -0.14053E+002   0.31541E+001  -0.40832E+000   0.65158E+000  -0.27152E+001
     390   0.56791E+001  -0.14232E+002   0.92603E+000  -0.64155E+000   0.64275E+000  -0.25678E+001
     391  -0.18263E-001  -0.75857E+001   0.69362E+000  -0.13139E+001  -0.60521E+000   0.28202E+001
     392  -0.46868E+000  -0.73362E+001   0.29097E+001  -0.10839E+001  -0.62403E+000   0.29202E+001
     393  -0.91909E+000  -0.70866E+001   0.51259E+001  -0.85383E+000   0.76350E-010  -0.10273E-009
     394  -0.46868E+000  -0.73362E+001   0.29097E+001  -0.10839E+001   0.62403E+000  -0.29202E+001
     395  -0.18263E-001  -0.75857E+001   0.69362E+000  -0.13139E+001   0.60521E+000  -0.28202E+001
     396   0.27293E+002  -0.31609E+002   0.45154E+001  -0.16704E+001   0.17958E+000   0.26450E+001
     397   0.25445E+002  -0.32220E+002   0.63158E+001  -0.18188E+001   0.94129E-001   0.26303E+001
     398   0.23598E+002  -0.32832E+002   0.81162E+001  -0.19672E+001   0.10620E-009  -0.45281E-009
     399   0.25445E+002  -0.32220E+002   0.63158E+001  -0.18188E+001  -0.94129E-001  -0.26303E+001
     400   0.27293E+002  -0.31609E+002   0.45154E+001  -0.16704E+001  -0.17958E+000  -0.26450E+001
     401   0.27293E+002  -0.31609E+002   0.45154E+001   0.16704E+001  -0.17958E+000   0.26450E+001
     402   0.25445E+002  -0.32220E+002   0.63158E+001   0.18188E+001  -0.94129E-001   0.26303E+001
     403   0.23598E+002  -0.32832E+002   0.81162E+001   0.19672E+001   0.25368E-010  -0.37294E-009
     404   0.25445E+002  -0.32220E+002   0.63158E+001   0.18188E+001   0.94129E-001  -0.26303E+001
     405   0.27293E+002  -0.31609E+002   0.45154E+001   0.16704E+001   0.17958E+000  -0.26450E+001
     406  -0.13942E+002  -0.75599E+001  -0.11088E+001  -0.56447E+000   0.10091E+001   0.27268E+001
     407  -0.13595E+002  -0.67947E+001  -0.77327E+000  -0.40884E+000   0.66404E+000   0.20500E+001
     408  -0.13247E+002  -0.60295E+001  -0.43769E+000  -0.25321E+000   0.16308E-010  -0.61996E-011
     409  -0.13595E+002  -0.67947E+001  -0.77327E+000  -0.40884E+000  -0.66404E+000  -0.20500E+001
     410  -0.13942E+002  -0.75599E+001  -0.11088E+001  -0.56447E+000  -0.10091E+001  -0.27268E+001
     411  -0.84961E+001  -0.12541E+002  -0.83253E+000  -0.91978E+000   0.40552E+000   0.23047E+001
     412  -0.77546E+001  -0.11549E+002  -0.13093E+000  -0.82413E+000   0.27344E+000   0.17386E+001
     413  -0.70131E+001  -0.10556E+002   0.57068E+000  -0.72849E+000  -0.25889E-010  -0.57904E-010
     414  -0.77546E+001  -0.11549E+002  -0.13093E+000  -0.82413E+000  -0.27344E+000  -0.17386E+001
     415  -0.84961E+001  -0.12541E+002  -0.83253E+000  -0.91978E+000  -0.40552E+000  -0.23047E+001
     416  -0.22582E+001  -0.20928E+002   0.21744E+000  -0.12432E+001  -0.29069E+000   0.17945E+001
     417  -0.11240E+001  -0.20275E+002   0.99438E+000  -0.11995E+001  -0.22793E+000   0.14311E+001
     418   0.10059E-001  -0.19622E+002   0.17713E+001  -0.11559E+001  -0.39490E-011  -0.22060E-009
     419  -0.11240E+001  -0.20275E+002   0.99438E+000  -0.11995E+001   0.22793E+000  -0.14311E+001
     420  -0.22582E+001  -0.20928E+002   0.21744E+000  -0.12432E+001   0.29069E+000  -0.17945E+001
     421  -0.20222E+001  -0.25819E+002   0.12624E+001  -0.10903E+001  -0.22307E+000   0.17743E+001
     422  -0.88417E+000  -0.25971E+002   0.18174E+001  -0.10222E+001  -0.23130E+000   0.14802E+001
     423   0.25389E+000  -0.26124E+002   0.23723E+001  -0.95416E+000   0.55108E-010  -0.40263E-009
     424  -0.88417E+000  -0.25971E+002   0.18174E+001  -0.10222E+001   0.23130E+000  -0.14802E+001
     425  -0.20222E+001  -0.25819E+002   0.12624E+001  -0.10903E+001   0.22307E+000  -0.17743E+001
     426  -0.25778E+001  -0.27304E+002   0.15338E+001   0.34122E-009   0.11427E-009   0.18422E+001
     427  -0.14346E+001  -0.27695E+002   0.21574E+001   0.28512E-009   0.11466E-009   0.15255E+001
     428  -0.29134E+000  -0.28086E+002   0.27810E+001   0.19849E-009   0.34993E-010  -0.49962E-009
     429  -0.14346E+001  -0.27695E+002   0.21574E+001   0.20316E-009  -0.11700E-009  -0.15255E+001
     430  -0.25778E+001  -0.27304E+002   0.15338E+001   0.23835E-009  -0.18893E-009  -0.18422E+001
     431  -0.20222E+001  -0.25819E+002   0.12624E+001   0.10903E+001   0.22307E+000   0.17743E+001
     432  -0.88417E+000  -0.25971E+002   0.18174E+001   0.10222E+001   0.23130E+000   0.14802E+001
     433   0.25389E+000  -0.26124E+002   0.23723E+001   0.95416E+000  -0.64729E-010  -0.61074E-009
     434  -0.88417E+000  -0.25971E+002   0.18174E+001   0.10222E+001  -0.23130E+000  -0.14802E+001
     435  -0.20222E+001  -0.25819E+002   0.12624E+001   0.10903E+001  -0.22307E+000  -0.17743E+001
     436  -0.22582E+001  -0.20928E+002   0.21744E+000   0.12432E+001   0.29069E+000   0.17945E+001
     437  -0.11240E+001  -0.20275E+002   0.99438E+000   0.11995E+001   0.22793E+000   0.14311E+001
     438   0.10059E-001  -0.19622E+002   0.17713E+001   0.11559E+001  -0.89891E-010  -0.56775E-009
     439  -0.11240E+001  -0.20275E+002   0.99438E+000   0.11995E+001  -0.22793E+000  -0.14311E+001
     440  -0.22582E+001  -0.20928E+002   0.21744E+000   0.12432E+001  -0.29069E+000  -0.17945E+001
     441  -0.84961E+001  -0.12541E+002  -0.83253E+000   0.91978E+000  -0.40552E+000   0.23047E+001
     442  -0.77546E+001  -0.11549E+002  -0.13093E+000   0.82413E+000  -0.27344E+000   0.17386E+001
     443  -0.70131E+001  -0.10556E+002   0.57068E+000   0.72849E+000  -0.31164E-010  -0.26588E-009
     444  -0.77546E+001  -0.11549E+002  -0.13093E+000   0.82413E+000   0.27344E+000  -0.17386E+001
     445  -0.84961E+001  -0.12541E+002  -0.83253E+000   0.91978E+000   0.40552E+000  -0.23047E+001
     446  -0.13942E+002  -0.75599E+001  -0.11088E+001   0.56447E+000  -0.10091E+001   0.27268E+001
     447  -0.13595E+002  -0.67947E+001  -0.77327E+000   0.40884E+000  -0.66404E+000   0.20500E+001
     448  -0.13247E+002  -0.60295E+001  -0.43769E+000   0.25321E+000  -0.31964E-010  -0.92155E-010
     449  -0.13595E+002  -0.67947E+001  -0.77327E+000   0.40884E+000   0.66404E+000  -0.20500E+001
     450  -0.13942E+002  -0.75599E+001  -0.11088E+001   0.56447E+000   0.10091E+001  -0.27268E+001
     451  -0.98224E+001  -0.22789E+001   0.67901E+000  -0.64830E+000   0.77123E+000   0.17152E+001
     452  -0.10204E+002  -0.13123E+001  -0.33968E+000  -0.31660E+000   0.38351E+000   0.10756E+001
     453  -0.10585E+002  -0.34561E+000  -0.13584E+001   0.15093E-001   0.15306E-009  -0.16581E-009
     454  -0.10204E+002  -0.13123E+001  -0.33968E+000  -0.31660E+000  -0.38351E+000  -0.10756E+001
     455  -0.98224E+001  -0.22789E+001   0.67901E+000  -0.64830E+000  -0.77123E+000  -0.17152E+001
     456  -0.79044E+001  -0.63067E+001  -0.34609E-002   0.45193E+000  -0.10071E+000   0.11291E+001
     457  -0.75795E+001  -0.51610E+001  -0.59934E+000   0.53501E+000  -0.20225E+000   0.65318E+000
     458  -0.72546E+001  -0.40153E+001  -0.11952E+001   0.61810E+000   0.43694E-010  -0.11598E-009
     459  -0.75795E+001  -0.51610E+001  -0.59934E+000   0.53501E+000   0.20225E+000  -0.65318E+000
     460  -0.79044E+001  -0.63067E+001  -0.34609E-002   0.45193E+000   0.10071E+000  -0.11291E+001
     461  -0.20298E+002  -0.94698E+001  -0.19490E+001   0.11352E+001  -0.76597E+000   0.21920E+000
     462  -0.18530E+002  -0.90059E+001  -0.24191E+001   0.97360E+000  -0.67486E+000   0.95130E-001
     463  -0.16762E+002  -0.85420E+001  -0.28892E+001   0.81197E+000  -0.23693E-010  -0.20963E-009
     464  -0.18530E+002  -0.90059E+001  -0.24191E+001   0.97360E+000   0.67486E+000  -0.95130E-001
     465  -0.20298E+002  -0.94698E+001  -0.19490E+001   0.11352E+001   0.76597E+000  -0.21920E+000
     466  -0.29620E+002  -0.10364E+002  -0.27559E+001   0.37559E+000  -0.50330E+000  -0.16443E+000
     467  -0.27378E+002  -0.10306E+002  -0.31750E+001   0.29111E+000  -0.45475E+000  -0.12966E+000
     468  -0.25136E+002  -0.10247E+002  -0.35941E+001   0.20663E+000  -0.30010E-010  -0.43607E-009
     469  -0.27378E+002  -0.10306E+002  -0.31750E+001   0.29111E+000   0.45475E+000   0.12966E+000
     470  -0.29620E+002  -0.10364E+002  -0.27559E+001   0.37559E+000   0.50330E+000   0.16443E+000
     471  -0.31786E+002  -0.11691E+002  -0.29312E+001   0.39607E-009  -0.11759E-010  -0.38615E+000
     472  -0.29438E+002  -0.11607E+002  -0.31508E+001   0.26270E-009  -0.10275E-010  -0.28665E+000
     473  -0.27090E+002  -0.11524E+002  -0.33704E+001   0.54236E-010  -0.66273E-010  -0.64882E-009
     474  -0.29438E+002  -0.11607E+002  -0.31508E+001   0.38514E-010  -0.61761E-010   0.28665E+000
     475  -0.31786E+002  -0.11691E+002  -0.29312E+001   0.97891E-010   0.23261E-012   0.38615E+000
     476  -0.29620E+002  -0.10364E+002  -0.27559E+001  -0.37559E+000   0.50330E+000  -0.16443E+000
     477  -0.27378E+002  -0.10306E+002  -0.31750E+001  -0.29111E+000   0.45475E+000  -0.12966E+000
     478  -0.25136E+002  -0.10247E+002  -0.35941E+001  -0.20663E+000  -0.11512E-009  -0.70016E-009
     479  -0.27378E+002  -0.10306E+002  -0.31750E+001  -0.29111E+000  -0.45475E+000   0.12966E+000
     480  -0.29620E+002  -0.10364E+002  -0.27559E+001  -0.37559E+000  -0.50330E+000   0.16443E+000
     481  -0.20298E+002  -0.94698E+001  -0.19490E+001  -0.11352E+001   0.76597E+000   0.21920E+000
     482  -0.18530E+002  -0.90059E+001  -0.24191E+001  -0.97360E+000   0.67486E+000   0.95130E-001
     483  -0.16762E+002  -0.85420E+001  -0.28892E+001  -0.81197E+000  -0.14418E-009  -0.62938E-009
     484  -0.18530E+002  -0.90059E+001  -0.24191E+001  -0.97360E+000  -0.67486E+000  -0.95130E-001
     485  -0.20298E+002  -0.94698E+001  -0.19490E+001  -0.11352E+001  -0.76597E+000  -0.21920E+000
     486  -0.79044E+001  -0.63067E+001  -0.34609E-002  -0.45193E+000   0.10071E+000   0.11291E+001
     487  -0.75795E+001  -0.51610E+001  -0.59934E+000  -0.53501E+000   0.20225E+000   0.65318E+000
     488  -0.72546E+001  -0.40153E+001  -0.11952E+001  -0.61810E+000  -0.10499E-009  -0.30462E-009
     489  -0.75795E+001  -0.51610E+001  -0.59934E+000  -0.53501E+000  -0.20225E+000  -0.65318E+000
     490  -0.79044E+001  -0.63067E+001  -0.34609E-002  -0.45193E+000  -0.10071E+000  -0.11291E+001
     491  -0.98224E+001  -0.22789E+001   0.67901E+000   0.64830E+000  -0.77123E+000   0.17152E+001
     492  -0.10204E+002  -0.13123E+001  -0.33968E+000   0.31660E+000  -0.38351E+000   0.10756E+001
     493  -0.10585E+002  -0.34561E+000  -0.13584E+001  -0.15093E-001  -0.87444E-010  -0.10801E-009
     494  -0.10204E+002  -0.13123E+001  -0.33968E+000   0.31660E+000   0.38351E+000  -0.10756E+001
     495  -0.98224E+001  -0.22789E+001   0.67901E+000   0.64830E+000   0.77123E+000  -0.17152E+001
     496  -0.58050E+002   0.11303E+000  -0.81977E+000  -0.21988E+000  -0.23787E+000  -0.16745E+000
     497  -0.57524E+002  -0.42487E+000  -0.22560E+001  -0.21641E+000  -0.15887E+000  -0.21467E+000
     498  -0.56998E+002  -0.96278E+000  -0.36922E+001  -0.21295E+000  -0.89824E-010  -0.32041E-009
     499  -0.57524E+002  -0.42487E+000  -0.22560E+001  -0.21641E+000   0.15887E+000   0.21467E+000
     500  -0.58050E+002   0.11303E+000  -0.81977E+000  -0.21988E+000   0.23787E+000   0.16745E+000
     501  -0.58251E+002   0.80583E+000   0.95490E-001   0.22804E-009  -0.99433E-010  -0.41153E+000
     502  -0.58014E+002  -0.57566E-001  -0.16766E+001   0.59074E-010  -0.10534E-009  -0.43108E+000
     503  -0.57777E+002  -0.92097E+000  -0.34487E+001  -0.19065E-009  -0.78779E-010  -0.47228E-009
     504  -0.58014E+002  -0.57566E-001  -0.16766E+001  -0.17246E-009  -0.76671E-011   0.43108E+000
     505  -0.58251E+002   0.80583E+000   0.95490E-001  -0.73516E-010   0.30980E-010   0.41153E+000
     506  -0.58050E+002   0.11303E+000  -0.81977E+000   0.21988E+000   0.23787E+000  -0.16745E+000
     507  -0.57524E+002  -0.42487E+000  -0.22560E+001   0.21641E+000   0.15887E+000  -0.21467E+000
     508  -0.56998E+002  -0.96278E+000  -0.36922E+001   0.21295E+000  -0.39895E-010  -0.52566E-009
     509  -0.57524E+002  -0.42487E+000  -0.22560E+001   0.21641E+000  -0.15887E+000   0.21467E+000
     510  -0.58050E+002   0.11303E+000  -0.81977E+000   0.21988E+000  -0.23787E+000   0.16745E+000
     511  -0.57848E+002  -0.57977E+000  -0.17350E+001  -0.27158E+000  -0.26993E+000   0.76636E-001
     512  -0.57034E+002  -0.79218E+000  -0.28353E+001  -0.27209E+000  -0.20368E+000   0.17472E-002
     513  -0.56220E+002  -0.10046E+001  -0.39356E+001  -0.27259E+000  -0.91350E-010  -0.25496E-009
     514  -0.57034E+002  -0.79218E+000  -0.28353E+001  -0.27209E+000   0.20368E+000  -0.17472E-002
     515  -0.57848E+002  -0.57977E+000  -0.17350E+001  -0.27158E+000   0.26993E+000  -0.76636E-001
     516  -0.57848E+002  -0.57977E+000  -0.17350E+001   0.27158E+000   0.26993E+000   0.76636E-001
     517  -0.57034E+002  -0.79218E+000  -0.28353E+001   0.27209E+000   0.20368E+000   0.17472E-002
     518  -0.56220E+002  -0.10046E+001  -0.39356E+001   0.27259E+000  -0.10530E-010  -0.49260E-009
     519  -0.57034E+002  -0.79218E+000  -0.28353E+001   0.27209E+000  -0.20368E+000  -0.17472E-002
     520  -0.57848E+002  -0.57977E+000  -0.17350E+001   0.27158E+000  -0.26993E+000  -0.76636E-001
     521  -0.94504E+002   0.64268E+000   0.46712E+000  -0.27172E+000  -0.66488E-001  -0.55676E+000
     522  -0.95024E+002   0.48872E+000   0.32448E+000  -0.15430E+000  -0.19338E-001  -0.45416E+000
     523  -0.95545E+002   0.33476E+000   0.18183E+000  -0.36880E-001  -0.62169E-010  -0.13963E-009
     524  -0.95024E+002   0.48872E+000   0.32448E+000  -0.15430E+000   0.19338E-001   0.45416E+000
     525  -0.94504E+002   0.64268E+000   0.46712E+000  -0.27172E+000   0.66488E-001   0.55676E+000
     526  -0.95043E+002  -0.41907E+000  -0.15335E+000  -0.28173E+000  -0.17024E-001  -0.47568E+000
     527  -0.95514E+002  -0.57877E+000  -0.15508E+000  -0.14579E+000   0.30873E-001  -0.40604E+000
     528  -0.95984E+002  -0.73846E+000  -0.15681E+000  -0.98549E-002  -0.60154E-010  -0.13741E-009
     529  -0.95514E+002  -0.57877E+000  -0.15508E+000  -0.14579E+000  -0.30873E-001   0.40604E+000
     530  -0.95043E+002  -0.41907E+000  -0.15335E+000  -0.28173E+000   0.17024E-001   0.47568E+000
     531  -0.93964E+002   0.17044E+001   0.10876E+001   0.17661E-009  -0.58631E-010  -0.63783E+000
     532  -0.94535E+002   0.15562E+001   0.80404E+000   0.91460E-010  -0.60751E-010  -0.50228E+000
     533  -0.95105E+002   0.14080E+001   0.52047E+000  -0.57906E-010  -0.20535E-010  -0.21681E-009
     534  -0.94535E+002   0.15562E+001   0.80404E+000  -0.61874E-010   0.19475E-010   0.50228E+000
     535  -0.93964E+002   0.17044E+001   0.10876E+001  -0.16226E-011   0.17149E-010   0.63783E+000
     536  -0.94504E+002   0.64268E+000   0.46712E+000   0.27172E+000   0.66488E-001  -0.55676E+000
     537  -0.95024E+002   0.48872E+000   0.32448E+000   0.15430E+000   0.19338E-001  -0.45416E+000
     538  -0.95545E+002   0.33476E+000   0.18183E+000   0.36880E-001   0.45539E-010  -0.29642E-009
     539  -0.95024E+002   0.48872E+000   0.32448E+000   0.15430E+000  -0.19338E-001   0.45416E+000
     540  -0.94504E+002   0.64268E+000   0.46712E+000   0.27172E+000  -0.66488E-001   0.55676E+000
     541  -0.95043E+002  -0.41907E+000  -0.15335E+000   0.28173E+000   0.17024E-001  -0.47568E+000
     542  -0.95514E+002  -0.57877E+000  -0.15508E+000   0.14579E+000  -0.30873E-001  -0.40604E+000
     543  -0.95984E+002  -0.73846E+000  -0.15681E+000   0.98549E-002   0.67963E-010  -0.30105E-009
     544  -0.95514E+002  -0.57877E+000  -0.15508E+000   0.14579E+000   0.30873E-001   0.40604E+000
     545  -0.95043E+002  -0.41907E+000  -0.15335E+000   0.28173E+000  -0.17024E-001   0.47568E+000
     546  -0.12334E+003   0.14808E+001   0.20782E+001  -0.14022E-001   0.35426E-001  -0.62687E+000
     547  -0.12461E+003   0.10309E+001   0.26304E+001  -0.53029E-001  -0.17195E-001  -0.58911E+000
     548  -0.12589E+003   0.58107E+000   0.31825E+001  -0.92036E-001   0.31318E-010   0.85495E-011
     549  -0.12461E+003   0.10309E+001   0.26304E+001  -0.53029E-001   0.17195E-001   0.58911E+000
     550  -0.12334E+003   0.14808E+001   0.20782E+001  -0.14022E-001  -0.35426E-001   0.62687E+000
     551  -0.12431E+003   0.12897E+001   0.12461E+001  -0.11509E-001  -0.20838E-001  -0.58033E+000
     552  -0.12524E+003   0.14091E+001   0.23034E+001  -0.41642E-001  -0.75534E-001  -0.54854E+000
     553  -0.12616E+003   0.15285E+001   0.33606E+001  -0.71775E-001   0.10715E-011  -0.88852E-010
     554  -0.12524E+003   0.14091E+001   0.23034E+001  -0.41642E-001   0.75534E-001   0.54854E+000
     555  -0.12431E+003   0.12897E+001   0.12461E+001  -0.11509E-001   0.20838E-001   0.58033E+000
     556  -0.12529E+003   0.10986E+001   0.41395E+000   0.47691E-010  -0.19272E-010  -0.53380E+000
     557  -0.12586E+003   0.17873E+001   0.19763E+001   0.10919E-010  -0.27406E-010  -0.50797E+000
     558  -0.12644E+003   0.24760E+001   0.35387E+001  -0.25695E-011  -0.11839E-010  -0.16508E-009
     559  -0.12586E+003   0.17873E+001   0.19763E+001   0.33665E-010   0.24795E-010   0.50797E+000
     560  -0.12529E+003   0.10986E+001   0.41395E+000   0.46616E-010   0.37727E-010   0.53380E+000
     561  -0.12431E+003   0.12897E+001   0.12461E+001   0.11509E-001   0.20838E-001  -0.58033E+000
     562  -0.12524E+003   0.14091E+001   0.23034E+001   0.41642E-001   0.75534E-001  -0.54854E+000
     563  -0.12616E+003   0.15285E+001   0.33606E+001   0.71775E-001   0.25312E-010  -0.14193E-009
     564  -0.12524E+003   0.14091E+001   0.23034E+001   0.41642E-001  -0.75534E-001   0.54854E+000
     565  -0.12431E+003   0.12897E+001   0.12461E+001   0.11509E-001  -0.20838E-001   0.58033E+000
     566  -0.12334E+003   0.14808E+001   0.20782E+001   0.14022E-001  -0.35426E-001  -0.62687E+000
     567  -0.12461E+003   0.10309E+001   0.26304E+001   0.53029E-001   0.17195E-001  -0.58911E+000
     568  -0.12589E+003   0.58107E+000   0.31825E+001   0.92036E-001   0.45126E-010  -0.13996E-009
     569  -0.12461E+003   0.10309E+001   0.26304E+001   0.53029E-001  -0.17195E-001   0.58911E+000
     570  -0.12334E+003   0.14808E+001   0.20782E+001   0.14022E-001   0.35426E-001   0.62687E+000
     571  -0.13458E+003   0.37047E+001   0.22113E+001   0.11962E-009  -0.93442E-011  -0.96551E-001
     572  -0.13595E+003   0.35947E+001   0.29897E+001   0.63211E-010   0.14323E-011  -0.91511E-001
     573  -0.13731E+003   0.34847E+001   0.37681E+001   0.31951E-010  -0.69550E-011  -0.12584E-009
     574  -0.13595E+003   0.35947E+001   0.29897E+001   0.89233E-010  -0.22015E-010   0.91511E-001
     575  -0.13458E+003   0.37047E+001   0.22113E+001   0.12136E-009  -0.17912E-010   0.96551E-001
     576  -0.13232E+003   0.15248E+001   0.21608E+001  -0.10317E+000  -0.58708E-001  -0.14620E+000
     577  -0.13365E+003   0.13863E+001   0.30409E+001  -0.12377E+000  -0.93927E-002  -0.81005E-001
     578  -0.13498E+003   0.12478E+001   0.39209E+001  -0.14437E+000  -0.26372E-011   0.10224E-009
     579  -0.13365E+003   0.13863E+001   0.30409E+001  -0.12377E+000   0.93927E-002   0.81005E-001
     580  -0.13232E+003   0.15248E+001   0.21608E+001  -0.10317E+000   0.58708E-001   0.14620E+000
     581  -0.13345E+003   0.26148E+001   0.21861E+001  -0.11546E-001  -0.31448E-001  -0.12138E+000
     582  -0.13480E+003   0.24905E+001   0.30153E+001  -0.56797E-001  -0.95417E-002  -0.86258E-001
     583  -0.13615E+003   0.23663E+001   0.38445E+001  -0.10205E+000  -0.53504E-011  -0.24844E-010
     584  -0.13480E+003   0.24905E+001   0.30153E+001  -0.56797E-001   0.95417E-002   0.86258E-001
     585  -0.13345E+003   0.26148E+001   0.21861E+001  -0.11546E-001   0.31448E-001   0.12138E+000
     586  -0.13345E+003   0.26148E+001   0.21861E+001   0.11546E-001   0.31448E-001  -0.12138E+000
     587  -0.13480E+003   0.24905E+001   0.30153E+001   0.56797E-001   0.95417E-002  -0.86258E-001
     588  -0.13615E+003   0.23663E+001   0.38445E+001   0.10205E+000  -0.12888E-011  -0.73973E-010
     589  -0.13480E+003   0.24905E+001   0.30153E+001   0.56797E-001  -0.95417E-002   0.86258E-001
     590  -0.13345E+003   0.26148E+001   0.21861E+001   0.11546E-001  -0.31448E-001   0.12138E+000
     591  -0.13232E+003   0.15248E+001   0.21608E+001   0.10317E+000   0.58708E-001  -0.14620E+000
     592  -0.13365E+003   0.13863E+001   0.30409E+001   0.12377E+000   0.93927E-002  -0.81005E-001
     593  -0.13498E+003   0.12478E+001   0.39209E+001   0.14437E+000   0.32690E-011  -0.48191E-010
     594  -0.13365E+003   0.13863E+001   0.30409E+001   0.12377E+000  -0.93927E-002   0.81005E-001
     595  -0.13232E+003   0.15248E+001   0.21608E+001   0.10317E+000  -0.58708E-001   0.14620E+000
     596  -0.12139E+003   0.67753E-001  -0.15233E+000   0.18260E+000  -0.88136E-001   0.31406E+000
     597  -0.12148E+003   0.74758E+000   0.14312E+001   0.19799E+000  -0.23334E-001   0.25655E+000
     598  -0.12157E+003   0.14274E+001   0.30147E+001   0.21339E+000  -0.24666E-010   0.81961E-010
     599  -0.12148E+003   0.74758E+000   0.14312E+001   0.19799E+000   0.23334E-001  -0.25655E+000
     600  -0.12139E+003   0.67753E-001  -0.15233E+000   0.18260E+000   0.88136E-001  -0.31406E+000
     601  -0.12182E+003   0.12260E+001   0.26040E+000   0.81438E-001  -0.11816E-001   0.30576E+000
     602  -0.12211E+003   0.15935E+001   0.15490E+001   0.10171E+000   0.26037E-001   0.26842E+000
     603  -0.12239E+003   0.19611E+001   0.28375E+001   0.12197E+000  -0.15538E-010   0.21455E-010
     604  -0.12211E+003   0.15935E+001   0.15490E+001   0.10171E+000  -0.26037E-001  -0.26842E+000
     605  -0.12182E+003   0.12260E+001   0.26040E+000   0.81438E-001   0.11816E-001  -0.30576E+000
     606  -0.12224E+003   0.23842E+001   0.67314E+000   0.16916E-009  -0.10164E-010   0.29746E+000
     607  -0.12273E+003   0.24395E+001   0.16667E+001   0.12345E-009  -0.31473E-012   0.28029E+000
     608  -0.12322E+003   0.24948E+001   0.26604E+001   0.52688E-010   0.21240E-011  -0.62123E-010
     609  -0.12273E+003   0.24395E+001   0.16667E+001   0.63414E-010  -0.11189E-010  -0.28029E+000
     610  -0.12224E+003   0.23842E+001   0.67314E+000   0.99198E-010  -0.17092E-010  -0.29746E+000
     611  -0.12182E+003   0.12260E+001   0.26040E+000  -0.81438E-001   0.11816E-001   0.30576E+000
     612  -0.12211E+003   0.15935E+001   0.15490E+001  -0.10171E+000  -0.26037E-001   0.26842E+000
     613  -0.12239E+003   0.19611E+001   0.28375E+001  -0.12197E+000  -0.41487E-012  -0.53791E-010
     614  -0.12211E+003   0.15935E+001   0.15490E+001  -0.10171E+000   0.26037E-001  -0.26842E+000
     615  -0.12182E+003   0.12260E+001   0.26040E+000  -0.81438E-001  -0.11816E-001  -0.30576E+000
     616  -0.12139E+003   0.67753E-001  -0.15233E+000  -0.18260E+000   0.88136E-001   0.31406E+000
     617  -0.12148E+003   0.74758E+000   0.14312E+001  -0.19799E+000   0.23334E-001   0.25655E+000
     618  -0.12157E+003   0.14274E+001   0.30147E+001  -0.21339E+000  -0.11488E-010  -0.22387E-010
     619  -0.12148E+003   0.74758E+000   0.14312E+001  -0.19799E+000  -0.23334E-001  -0.25655E+000
     620  -0.12139E+003   0.67753E-001  -0.15233E+000  -0.18260E+000  -0.88136E-001  -0.31406E+000
     621  -0.92818E+002   0.41228E+000   0.20087E-001   0.27875E+000   0.25862E-001   0.27263E+000
     622  -0.92680E+002   0.46582E+000   0.19974E+000   0.26586E+000  -0.18924E-002   0.16475E+000
     623  -0.92541E+002   0.51936E+000   0.37940E+000   0.25297E+000   0.98845E-012   0.43095E-010
     624  -0.92680E+002   0.46582E+000   0.19974E+000   0.26586E+000   0.18924E-002  -0.16475E+000
     625  -0.92818E+002   0.41228E+000   0.20087E-001   0.27875E+000  -0.25862E-001  -0.27263E+000
     626  -0.93051E+002   0.54082E-002  -0.31282E+000   0.21562E+000   0.23239E-001   0.28175E+000
     627  -0.92811E+002   0.16661E+000   0.22757E-001   0.21706E+000  -0.21220E-002   0.17437E+000
     628  -0.92571E+002   0.32780E+000   0.35833E+000   0.21851E+000  -0.50354E-011   0.18801E-010
     629  -0.92811E+002   0.16661E+000   0.22757E-001   0.21706E+000   0.21220E-002  -0.17437E+000
     630  -0.93051E+002   0.54082E-002  -0.31282E+000   0.21562E+000  -0.23239E-001  -0.28175E+000
     631  -0.93283E+002  -0.40146E+000  -0.64572E+000   0.86436E-010  -0.27123E-011   0.29087E+000
     632  -0.92942E+002  -0.13261E+000  -0.15423E+000   0.64490E-010  -0.78748E-011   0.18398E+000
     633  -0.92602E+002   0.13624E+000   0.33726E+000   0.23528E-010  -0.52227E-011  -0.21490E-010
     634  -0.92942E+002  -0.13261E+000  -0.15423E+000   0.14573E-010   0.25465E-011  -0.18398E+000
     635  -0.93283E+002  -0.40146E+000  -0.64572E+000   0.24635E-010   0.25011E-011  -0.29087E+000
     636  -0.93051E+002   0.54082E-002  -0.31282E+000  -0.21562E+000  -0.23239E-001   0.28175E+000
     637  -0.92811E+002   0.16661E+000   0.22757E-001  -0.21706E+000   0.21220E-002   0.17437E+000
     638  -0.92571E+002   0.32780E+000   0.35833E+000  -0.21851E+000  -0.17155E-011  -0.18348E-010
     639  -0.92811E+002   0.16661E+000   0.22757E-001  -0.21706E+000  -0.21220E-002  -0.17437E+000
     640  -0.93051E+002   0.54082E-002  -0.31282E+000  -0.21562E+000   0.23239E-001  -0.28175E+000
     641  -0.92818E+002   0.41228E+000   0.20087E-001  -0.27875E+000  -0.25862E-001   0.27263E+000
     642  -0.92680E+002   0.46582E+000   0.19974E+000  -0.26586E+000   0.18924E-002   0.16475E+000
     643  -0.92541E+002   0.51936E+000   0.37940E+000  -0.25297E+000  -0.40447E-011   0.78901E-012
     644  -0.92680E+002   0.46582E+000   0.19974E+000  -0.26586E+000  -0.18924E-002  -0.16475E+000
     645  -0.92818E+002   0.41228E+000   0.20087E-001  -0.27875E+000   0.25862E-001  -0.27263E+000
     646  -0.58963E+002  -0.10363E+001  -0.19941E-001   0.29571E-010  -0.98153E-012   0.80128E-001
     647  -0.58721E+002  -0.11746E+001  -0.76983E+000   0.20620E-010  -0.35524E-011   0.55553E-001
     648  -0.58480E+002  -0.13129E+001  -0.15197E+001   0.83558E-011  -0.49779E-011  -0.12452E-010
     649  -0.58721E+002  -0.11746E+001  -0.76983E+000   0.11982E-010  -0.29805E-011  -0.55553E-001
     650  -0.58963E+002  -0.10363E+001  -0.19941E-001   0.18921E-010  -0.21285E-011  -0.80128E-001
     651  -0.60024E+002  -0.48421E+000  -0.19032E+000   0.79906E-001   0.36727E-001   0.73669E-001
     652  -0.59824E+002  -0.75341E+000  -0.98836E+000   0.78071E-001   0.26690E-001   0.72416E-001
     653  -0.59624E+002  -0.10226E+001  -0.17864E+001   0.76237E-001   0.42735E-012   0.13972E-010
     654  -0.59824E+002  -0.75341E+000  -0.98836E+000   0.78071E-001  -0.26690E-001  -0.72416E-001
     655  -0.60024E+002  -0.48421E+000  -0.19032E+000   0.79906E-001  -0.36727E-001  -0.73669E-001
     656  -0.59493E+002  -0.76025E+000  -0.10513E+000   0.94449E-001   0.38055E-002   0.76899E-001
     657  -0.59273E+002  -0.96402E+000  -0.87910E+000   0.85293E-001   0.43828E-002   0.63984E-001
     658  -0.59052E+002  -0.11678E+001  -0.16531E+001   0.76137E-001  -0.37181E-011   0.23150E-011
     659  -0.59273E+002  -0.96402E+000  -0.87910E+000   0.85293E-001  -0.43828E-002  -0.63984E-001
     660  -0.59493E+002  -0.76025E+000  -0.10513E+000   0.94449E-001  -0.38055E-002  -0.76899E-001
     661  -0.59493E+002  -0.76025E+000  -0.10513E+000  -0.94449E-001  -0.38055E-002   0.76899E-001
     662  -0.59273E+002  -0.96402E+000  -0.87910E+000  -0.85293E-001  -0.43828E-002   0.63984E-001
     663  -0.59052E+002  -0.11678E+001  -0.16531E+001  -0.76137E-001  -0.11050E-011  -0.37217E-011
     664  -0.59273E+002  -0.96402E+000  -0.87910E+000  -0.85293E-001   0.43828E-002  -0.63984E-001
     665  -0.59493E+002  -0.76025E+000  -0.10513E+000  -0.94449E-001   0.38055E-002  -0.76899E-001
     666  -0.60024E+002  -0.48421E+000  -0.19032E+000  -0.79906E-001  -0.36727E-001   0.73669E-001
     667  -0.59824E+002  -0.75341E+000  -0.98836E+000  -0.78071E-001  -0.26690E-001   0.72416E-001
     668  -0.59624E+002  -0.10226E+001  -0.17864E+001  -0.76237E-001  -0.11771E-012   0.81186E-011
     669  -0.59824E+002  -0.75341E+000  -0.98836E+000  -0.78071E-001   0.26690E-001  -0.72416E-001
     670  -0.60024E+002  -0.48421E+000  -0.19032E+000  -0.79906E-001   0.36727E-001  -0.73669E-001
     671  -0.31927E+002  -0.13989E+001  -0.46223E+000   0.11662E-010  -0.59004E-012  -0.38505E-001
     672  -0.31580E+002  -0.14873E+001  -0.10460E+001   0.70929E-011  -0.10130E-011  -0.11081E-001
     673  -0.31233E+002  -0.15758E+001  -0.16297E+001   0.37020E-011  -0.10161E-011  -0.66105E-011
     674  -0.31580E+002  -0.14873E+001  -0.10460E+001   0.87692E-011  -0.64308E-012   0.11081E-001
     675  -0.31927E+002  -0.13989E+001  -0.46223E+000   0.12658E-010  -0.68978E-012   0.38505E-001
     676  -0.32871E+002  -0.74843E+000  -0.65933E+000  -0.43062E-001   0.12323E-001  -0.18384E-001
     677  -0.32441E+002  -0.72298E+000  -0.11087E+001  -0.35727E-001   0.64518E-002  -0.93968E-002
     678  -0.32011E+002  -0.69753E+000  -0.15581E+001  -0.28391E-001  -0.18460E-011  -0.13180E-011
     679  -0.32441E+002  -0.72298E+000  -0.11087E+001  -0.35727E-001  -0.64518E-002   0.93968E-002
     680  -0.32871E+002  -0.74843E+000  -0.65933E+000  -0.43062E-001  -0.12323E-001   0.18384E-001
     681  -0.32399E+002  -0.10736E+001  -0.56078E+000  -0.63348E-001   0.17785E-002  -0.28444E-001
     682  -0.32010E+002  -0.11052E+001  -0.10773E+001  -0.57804E-001   0.56030E-002  -0.10239E-001
     683  -0.31622E+002  -0.11367E+001  -0.15939E+001  -0.52261E-001  -0.16685E-011  -0.45219E-011
     684  -0.32010E+002  -0.11052E+001  -0.10773E+001  -0.57804E-001  -0.56030E-002   0.10239E-001
     685  -0.32399E+002  -0.10736E+001  -0.56078E+000  -0.63348E-001  -0.17785E-002   0.28444E-001
     686  -0.32399E+002  -0.10736E+001  -0.56078E+000   0.63348E-001  -0.17785E-002  -0.28444E-001
     687  -0.32010E+002  -0.11052E+001  -0.10773E+001   0.57804E-001  -0.56030E-002  -0.10239E-001
     688  -0.31622E+002  -0.11367E+001  -0.15939E+001   0.52261E-001   0.75236E-013  -0.14190E-011
     689  -0.32010E+002  -0.11052E+001  -0.10773E+001   0.57804E-001   0.56030E-002   0.10239E-001
     690  -0.32399E+002  -0.10736E+001  -0.56078E+000   0.63348E-001   0.17785E-002   0.28444E-001
     691  -0.32871E+002  -0.74843E+000  -0.65933E+000   0.43062E-001  -0.12323E-001  -0.18384E-001
     692  -0.32441E+002  -0.72298E+000  -0.11087E+001   0.35727E-001  -0.64518E-002  -0.93968E-002
     693  -0.32011E+002  -0.69753E+000  -0.15581E+001   0.28391E-001   0.69170E-012   0.26573E-011
     694  -0.32441E+002  -0.72298E+000  -0.11087E+001   0.35727E-001   0.64518E-002   0.93968E-002
     695  -0.32871E+002  -0.74843E+000  -0.65933E+000   0.43062E-001   0.12323E-001   0.18384E-001
     696  -0.16191E+002  -0.19935E+000  -0.31433E+000  -0.44853E-001   0.20382E-001  -0.57969E-001
     697  -0.15937E+002  -0.21749E+000  -0.65850E+000  -0.46928E-001   0.61453E-004  -0.48768E-001
     698  -0.15682E+002  -0.23563E+000  -0.10027E+001  -0.49003E-001  -0.95353E-012  -0.95627E-012
     699  -0.15937E+002  -0.21749E+000  -0.65850E+000  -0.46928E-001  -0.61453E-004   0.48768E-001
     700  -0.16191E+002  -0.19935E+000  -0.31433E+000  -0.44853E-001  -0.20382E-001   0.57969E-001
     701  -0.16054E+002  -0.73721E+000  -0.46405E+000  -0.26315E-001   0.86550E-002  -0.52638E-001
     702  -0.15785E+002  -0.74627E+000  -0.78251E+000  -0.26224E-001  -0.21267E-002  -0.45808E-001
     703  -0.15516E+002  -0.75532E+000  -0.11010E+001  -0.26133E-001  -0.56666E-012  -0.32223E-012
     704  -0.15785E+002  -0.74627E+000  -0.78251E+000  -0.26224E-001   0.21267E-002   0.45808E-001
     705  -0.16054E+002  -0.73721E+000  -0.46405E+000  -0.26315E-001  -0.86550E-002   0.52638E-001
     706  -0.15917E+002  -0.12751E+001  -0.61377E+000   0.24559E-011   0.83093E-012  -0.47308E-001
     707  -0.15634E+002  -0.12750E+001  -0.90653E+000   0.16184E-011   0.46204E-012  -0.42849E-001
     708  -0.15350E+002  -0.12750E+001  -0.11993E+001   0.19424E-011   0.19177E-012   0.14199E-011
     709  -0.15634E+002  -0.12750E+001  -0.90653E+000   0.30635E-011  -0.32553E-012   0.42849E-001
     710  -0.15917E+002  -0.12751E+001  -0.61377E+000   0.30231E-011  -0.94145E-012   0.47308E-001
     711  -0.16054E+002  -0.73721E+000  -0.46405E+000   0.26315E-001  -0.86550E-002  -0.52638E-001
     712  -0.15785E+002  -0.74627E+000  -0.78251E+000   0.26224E-001   0.21267E-002  -0.45808E-001
     713  -0.15516E+002  -0.75532E+000  -0.11010E+001   0.26133E-001   0.29851E-012   0.11676E-011
     714  -0.15785E+002  -0.74627E+000  -0.78251E+000   0.26224E-001  -0.21267E-002   0.45808E-001
     715  -0.16054E+002  -0.73721E+000  -0.46405E+000   0.26315E-001   0.86550E-002   0.52638E-001
     716  -0.16191E+002  -0.19935E+000  -0.31433E+000   0.44853E-001  -0.20382E-001  -0.57969E-001
     717  -0.15937E+002  -0.21749E+000  -0.65850E+000   0.46928E-001  -0.61453E-004  -0.48768E-001
     718  -0.15682E+002  -0.23563E+000  -0.10027E+001   0.49003E-001   0.33698E-013  -0.19284E-012
     719  -0.15937E+002  -0.21749E+000  -0.65850E+000   0.46928E-001   0.61453E-004   0.48768E-001
     720  -0.16191E+002  -0.19935E+000  -0.31433E+000   0.44853E-001   0.20382E-001   0.57969E-001
     721  -0.11068E+002  -0.30560E+000  -0.27727E+000  -0.28473E-001   0.11460E-001  -0.54006E-001
     722  -0.10915E+002  -0.37784E+000  -0.63229E+000  -0.31008E-001   0.17717E-002  -0.33703E-001
     723  -0.10763E+002  -0.45009E+000  -0.98732E+000  -0.33543E-001  -0.11766E-012   0.12257E-011
     724  -0.10915E+002  -0.37784E+000  -0.63229E+000  -0.31008E-001  -0.17717E-002   0.33703E-001
     725  -0.11068E+002  -0.30560E+000  -0.27727E+000  -0.28473E-001  -0.11460E-001   0.54006E-001
     726  -0.10850E+002  -0.59438E+000  -0.29690E+000   0.14863E-001  -0.14069E-002  -0.41359E-001
     727  -0.10695E+002  -0.65576E+000  -0.64689E+000   0.10337E-001  -0.38753E-002  -0.32853E-001
     728  -0.10541E+002  -0.71715E+000  -0.99688E+000   0.58114E-002  -0.86531E-013   0.19608E-011
     729  -0.10695E+002  -0.65576E+000  -0.64689E+000   0.10337E-001   0.38753E-002   0.32853E-001
     730  -0.10850E+002  -0.59438E+000  -0.29690E+000   0.14863E-001   0.14069E-002   0.41359E-001
     731  -0.10632E+002  -0.88316E+000  -0.31653E+000   0.58444E-012   0.45490E-012  -0.28711E-001
     732  -0.10475E+002  -0.93369E+000  -0.66148E+000   0.83796E-012   0.23441E-012  -0.32003E-001
     733  -0.10319E+002  -0.98421E+000  -0.10064E+001   0.10732E-011   0.14646E-013   0.25266E-011
     734  -0.10475E+002  -0.93369E+000  -0.66148E+000   0.11363E-011  -0.57286E-012   0.32003E-001
     735  -0.10632E+002  -0.88316E+000  -0.31653E+000   0.12176E-011  -0.11611E-011   0.28711E-001
     736  -0.10850E+002  -0.59438E+000  -0.29690E+000  -0.14863E-001   0.14069E-002  -0.41359E-001
     737  -0.10695E+002  -0.65576E+000  -0.64689E+000  -0.10337E-001   0.38753E-002  -0.32853E-001
     738  -0.10541E+002  -0.71715E+000  -0.99688E+000  -0.58114E-002  -0.23027E-012   0.11752E-011
     739  -0.10695E+002  -0.65576E+000  -0.64689E+000  -0.10337E-001  -0.38753E-002   0.32853E-001
     740  -0.10850E+002  -0.59438E+000  -0.29690E+000  -0.14863E-001  -0.14069E-002   0.41359E-001
     741  -0.11068E+002  -0.30560E+000  -0.27727E+000   0.28473E-001  -0.11460E-001  -0.54006E-001
     742  -0.10915E+002  -0.37784E+000  -0.63229E+000   0.31008E-001  -0.17717E-002  -0.33703E-001
     743  -0.10763E+002  -0.45009E+000  -0.98732E+000   0.33543E-001  -0.54523E-012  -0.69380E-014
     744  -0.10915E+002  -0.37784E+000  -0.63229E+000   0.31008E-001   0.17717E-002   0.33703E-001
     745  -0.11068E+002  -0.30560E+000  -0.27727E+000   0.28473E-001   0.11460E-001   0.54006E-001
