    NODE   SXX         SYY         SZZ         SXY         SYZ         SZX  
       1  -0.10206E+003   0.63417E+001   0.19337E+002   0.30236E+001   0.37828E+001   0.42262E+001
       2  -0.98925E+002   0.74197E+001   0.31054E+002   0.36311E+001   0.26354E+001   0.20834E+001
       3  -0.95786E+002   0.84977E+001   0.42770E+002   0.42385E+001  -0.25991E-011   0.10192E-010
       4  -0.98925E+002   0.74197E+001   0.31054E+002   0.36311E+001  -0.26354E+001  -0.20834E+001
       5  -0.10206E+003   0.63417E+001   0.19337E+002   0.30236E+001  -0.37828E+001  -0.42262E+001
       6  -0.99521E+002   0.95827E+001   0.20027E+002  -0.33455E+000   0.18886E+001   0.46643E+001
       7  -0.94131E+002   0.14103E+002   0.34975E+002   0.18021E+000   0.91108E+000   0.23418E+001
       8  -0.88741E+002   0.18624E+002   0.49923E+002   0.69497E+000  -0.88750E-011  -0.41093E-011
       9  -0.94131E+002   0.14103E+002   0.34975E+002   0.18021E+000  -0.91108E+000  -0.23418E+001
      10  -0.99521E+002   0.95827E+001   0.20027E+002  -0.33455E+000  -0.18886E+001  -0.46643E+001
      11  -0.92854E+002   0.14310E+002   0.23671E+002  -0.36709E+001  -0.89967E+000   0.52140E+001
      12  -0.84505E+002   0.22445E+002   0.43347E+002  -0.33053E+001  -0.12471E+001   0.26170E+001
      13  -0.76156E+002   0.30579E+002   0.63023E+002  -0.29396E+001  -0.14948E-010   0.12229E-010
      14  -0.84505E+002   0.22445E+002   0.43347E+002  -0.33053E+001   0.12471E+001  -0.26170E+001
      15  -0.92854E+002   0.14310E+002   0.23671E+002  -0.36709E+001   0.89967E+000  -0.52140E+001
      16  -0.87346E+002   0.12426E+002   0.28318E+002  -0.23190E+001  -0.12400E+001   0.52721E+001
      17  -0.78199E+002   0.20674E+002   0.49569E+002  -0.21190E+001  -0.11288E+001   0.25918E+001
      18  -0.69053E+002   0.28922E+002   0.70820E+002  -0.19190E+001   0.13670E-011   0.10594E-009
      19  -0.78199E+002   0.20674E+002   0.49569E+002  -0.21190E+001   0.11288E+001  -0.25918E+001
      20  -0.87346E+002   0.12426E+002   0.28318E+002  -0.23190E+001   0.12400E+001  -0.52721E+001
      21  -0.85961E+002   0.90567E+001   0.30011E+002   0.11577E-010   0.54422E-011   0.52187E+001
      22  -0.76725E+002   0.17246E+002   0.51341E+002   0.32275E-010   0.11080E-010   0.25498E+001
      23  -0.67489E+002   0.25436E+002   0.72671E+002   0.21247E-010   0.20983E-010   0.14031E-009
      24  -0.76725E+002   0.17246E+002   0.51341E+002  -0.68723E-010   0.24448E-010  -0.25498E+001
      25  -0.85961E+002   0.90567E+001   0.30011E+002  -0.12697E-009   0.23649E-010  -0.52187E+001
      26  -0.87346E+002   0.12426E+002   0.28318E+002   0.23190E+001   0.12400E+001   0.52721E+001
      27  -0.78199E+002   0.20674E+002   0.49569E+002   0.21190E+001   0.11288E+001   0.25918E+001
      28  -0.69053E+002   0.28922E+002   0.70820E+002   0.19190E+001   0.11102E-010   0.94285E-010
      29  -0.78199E+002   0.20674E+002   0.49569E+002   0.21190E+001  -0.11288E+001  -0.25918E+001
      30  -0.87346E+002   0.12426E+002   0.28318E+002   0.23190E+001  -0.12400E+001  -0.52721E+001
      31  -0.92854E+002   0.14310E+002   0.23671E+002   0.36709E+001   0.89967E+000   0.52140E+001
      32  -0.84505E+002   0.22445E+002   0.43347E+002   0.33053E+001   0.12471E+001   0.26170E+001
      33  -0.76156E+002   0.30579E+002   0.63023E+002   0.29396E+001  -0.90489E-012   0.56970E-010
      34  -0.84505E+002   0.22445E+002   0.43347E+002   0.33053E+001  -0.12471E+001  -0.26170E+001
      35  -0.92854E+002   0.14310E+002   0.23671E+002   0.36709E+001  -0.89967E+000  -0.52140E+001
      36  -0.99521E+002   0.95827E+001   0.20027E+002   0.33455E+000  -0.18886E+001   0.46643E+001
      37  -0.94131E+002   0.14103E+002   0.34975E+002  -0.18021E+000  -0.91108E+000   0.23418E+001
      38  -0.88741E+002   0.18624E+002   0.49923E+002  -0.69497E+000   0.51287E-011   0.20913E-011
      39  -0.94131E+002   0.14103E+002   0.34975E+002  -0.18021E+000   0.91108E+000  -0.23418E+001
      40  -0.99521E+002   0.95827E+001   0.20027E+002   0.33455E+000   0.18886E+001  -0.46643E+001
      41  -0.10206E+003   0.63417E+001   0.19337E+002  -0.30236E+001  -0.37828E+001   0.42262E+001
      42  -0.98925E+002   0.74197E+001   0.31054E+002  -0.36311E+001  -0.26354E+001   0.20834E+001
      43  -0.95786E+002   0.84977E+001   0.42770E+002  -0.42385E+001   0.97861E-011  -0.32784E-010
      44  -0.98925E+002   0.74197E+001   0.31054E+002  -0.36311E+001   0.26354E+001  -0.20834E+001
      45  -0.10206E+003   0.63417E+001   0.19337E+002  -0.30236E+001   0.37828E+001  -0.42262E+001
      46  -0.10789E+003   0.93451E+000   0.10802E+002   0.85714E+000   0.26385E+001   0.27941E+001
      47  -0.10584E+003   0.85171E+000   0.15399E+002   0.14580E+001   0.18764E+001   0.12103E+001
      48  -0.10380E+003   0.76891E+000   0.19996E+002   0.20588E+001  -0.16236E-011  -0.39705E-011
      49  -0.10584E+003   0.85171E+000   0.15399E+002   0.14580E+001  -0.18764E+001  -0.12103E+001
      50  -0.10789E+003   0.93451E+000   0.10802E+002   0.85714E+000  -0.26385E+001  -0.27941E+001
      51  -0.10317E+003  -0.13583E+001   0.12024E+002  -0.52752E+001  -0.60360E+000   0.34964E+001
      52  -0.98153E+002   0.26262E+001   0.21230E+002  -0.49329E+001  -0.84102E+000   0.14981E+001
      53  -0.93132E+002   0.66107E+001   0.30435E+002  -0.45906E+001  -0.44766E-011   0.11864E-010
      54  -0.98153E+002   0.26262E+001   0.21230E+002  -0.49329E+001   0.84102E+000  -0.14981E+001
      55  -0.10317E+003  -0.13583E+001   0.12024E+002  -0.52752E+001   0.60360E+000  -0.34964E+001
      56  -0.10317E+003  -0.13583E+001   0.12024E+002   0.52752E+001   0.60360E+000   0.34964E+001
      57  -0.98153E+002   0.26262E+001   0.21230E+002   0.49329E+001   0.84102E+000   0.14981E+001
      58  -0.93132E+002   0.66107E+001   0.30435E+002   0.45906E+001  -0.18262E-011   0.30876E-010
      59  -0.98153E+002   0.26262E+001   0.21230E+002   0.49329E+001  -0.84102E+000  -0.14981E+001
      60  -0.10317E+003  -0.13583E+001   0.12024E+002   0.52752E+001  -0.60360E+000  -0.34964E+001
      61  -0.10789E+003   0.93451E+000   0.10802E+002  -0.85714E+000  -0.26385E+001   0.27941E+001
      62  -0.10584E+003   0.85171E+000   0.15399E+002  -0.14580E+001  -0.18764E+001   0.12103E+001
      63  -0.10380E+003   0.76891E+000   0.19996E+002  -0.20588E+001   0.79077E-011  -0.20631E-010
      64  -0.10584E+003   0.85171E+000   0.15399E+002  -0.14580E+001   0.18764E+001  -0.12103E+001
      65  -0.10789E+003   0.93451E+000   0.10802E+002  -0.85714E+000   0.26385E+001  -0.27941E+001
      66  -0.10672E+003  -0.46510E+000   0.10399E+002  -0.23146E+001   0.13515E+001   0.31407E+001
      67  -0.10339E+003   0.14422E+001   0.16841E+002  -0.18167E+001   0.70440E+000   0.13901E+001
      68  -0.10007E+003   0.33495E+001   0.23283E+002  -0.13188E+001  -0.42433E-011  -0.80714E-011
      69  -0.10339E+003   0.14422E+001   0.16841E+002  -0.18167E+001  -0.70440E+000  -0.13901E+001
      70  -0.10672E+003  -0.46510E+000   0.10399E+002  -0.23146E+001  -0.13515E+001  -0.31407E+001
      71  -0.10001E+003  -0.27289E+001   0.15399E+002  -0.33135E+001  -0.89343E+000   0.33804E+001
      72  -0.94519E+002   0.12962E+001   0.25619E+002  -0.31231E+001  -0.82696E+000   0.13205E+001
      73  -0.89024E+002   0.53213E+001   0.35840E+002  -0.29328E+001   0.54710E-011   0.69202E-010
      74  -0.94519E+002   0.12962E+001   0.25619E+002  -0.31231E+001   0.82696E+000  -0.13205E+001
      75  -0.10001E+003  -0.27289E+001   0.15399E+002  -0.33135E+001   0.89343E+000  -0.33804E+001
      76  -0.99237E+002  -0.46060E+001   0.16745E+002   0.18567E-011   0.47567E-011   0.32552E+001
      77  -0.93677E+002  -0.62734E+000   0.27062E+002   0.13592E-010   0.77395E-011   0.12147E+001
      78  -0.88117E+002   0.33513E+001   0.37378E+002   0.62320E-011   0.11359E-010   0.84895E-010
      79  -0.93677E+002  -0.62734E+000   0.27062E+002  -0.42395E-010   0.95941E-011  -0.12147E+001
      80  -0.99237E+002  -0.46060E+001   0.16745E+002  -0.71926E-010   0.71932E-011  -0.32552E+001
      81  -0.10001E+003  -0.27289E+001   0.15399E+002   0.33135E+001   0.89343E+000   0.33804E+001
      82  -0.94519E+002   0.12962E+001   0.25619E+002   0.31231E+001   0.82696E+000   0.13205E+001
      83  -0.89024E+002   0.53213E+001   0.35840E+002   0.29328E+001   0.29053E-011   0.54872E-010
      84  -0.94519E+002   0.12962E+001   0.25619E+002   0.31231E+001  -0.82696E+000  -0.13205E+001
      85  -0.10001E+003  -0.27289E+001   0.15399E+002   0.33135E+001  -0.89343E+000  -0.33804E+001
      86  -0.10672E+003  -0.46510E+000   0.10399E+002   0.23146E+001  -0.13515E+001   0.31407E+001
      87  -0.10339E+003   0.14422E+001   0.16841E+002   0.18167E+001  -0.70440E+000   0.13901E+001
      88  -0.10007E+003   0.33495E+001   0.23283E+002   0.13188E+001   0.40649E-011  -0.66931E-012
      89  -0.10339E+003   0.14422E+001   0.16841E+002   0.18167E+001   0.70440E+000  -0.13901E+001
      90  -0.10672E+003  -0.46510E+000   0.10399E+002   0.23146E+001   0.13515E+001  -0.31407E+001
      91  -0.82235E+002  -0.34272E+001   0.81067E+000  -0.17328E+001   0.73071E+000   0.39184E+000
      92  -0.80774E+002  -0.39063E+001  -0.16850E+001  -0.13505E+001   0.55708E+000   0.55287E-001
      93  -0.79313E+002  -0.43855E+001  -0.41807E+001  -0.96825E+000  -0.21417E-012  -0.14019E-010
      94  -0.80774E+002  -0.39063E+001  -0.16850E+001  -0.13505E+001  -0.55708E+000  -0.55287E-001
      95  -0.82235E+002  -0.34272E+001   0.81067E+000  -0.17328E+001  -0.73071E+000  -0.39184E+000
      96  -0.81899E+002  -0.80582E+001   0.88415E-001  -0.34407E+001   0.37880E+000   0.53925E+000
      97  -0.80391E+002  -0.85258E+001  -0.24403E+001  -0.30987E+001   0.24870E+000   0.12520E+000
      98  -0.78882E+002  -0.89935E+001  -0.49689E+001  -0.27568E+001   0.68035E-012  -0.83035E-011
      99  -0.80391E+002  -0.85258E+001  -0.24403E+001  -0.30987E+001  -0.24870E+000  -0.12520E+000
     100  -0.81899E+002  -0.80582E+001   0.88415E-001  -0.34407E+001  -0.37880E+000  -0.53925E+000
     101  -0.81888E+002  -0.13781E+002  -0.21833E+000  -0.49539E+001  -0.20828E+000   0.64404E+000
     102  -0.80272E+002  -0.14246E+002  -0.26850E+001  -0.47031E+001  -0.25562E+000   0.10921E+000
     103  -0.78656E+002  -0.14711E+002  -0.51516E+001  -0.44522E+001   0.33325E-011   0.58624E-011
     104  -0.80272E+002  -0.14246E+002  -0.26850E+001  -0.47031E+001   0.25562E+000  -0.10921E+000
     105  -0.81888E+002  -0.13781E+002  -0.21833E+000  -0.49539E+001   0.20828E+000  -0.64404E+000
     106  -0.82635E+002  -0.14856E+002   0.13670E+001  -0.10400E-010   0.30380E-011   0.35584E+000
     107  -0.80870E+002  -0.15371E+002  -0.81380E+000  -0.78838E-011   0.23718E-011  -0.20089E+000
     108  -0.79104E+002  -0.15886E+002  -0.29946E+001  -0.70357E-011   0.18056E-012   0.12895E-010
     109  -0.80870E+002  -0.15371E+002  -0.81380E+000  -0.71203E-011  -0.25606E-011   0.20089E+000
     110  -0.82635E+002  -0.14856E+002   0.13670E+001  -0.55363E-011  -0.37767E-011  -0.35584E+000
     111  -0.81888E+002  -0.13781E+002  -0.21833E+000   0.49539E+001   0.20828E+000   0.64404E+000
     112  -0.80272E+002  -0.14246E+002  -0.26850E+001   0.47031E+001   0.25562E+000   0.10921E+000
     113  -0.78656E+002  -0.14711E+002  -0.51516E+001   0.44522E+001  -0.12282E-011   0.56374E-011
     114  -0.80272E+002  -0.14246E+002  -0.26850E+001   0.47031E+001  -0.25562E+000  -0.10921E+000
     115  -0.81888E+002  -0.13781E+002  -0.21833E+000   0.49539E+001  -0.20828E+000  -0.64404E+000
     116  -0.81899E+002  -0.80582E+001   0.88415E-001   0.34407E+001  -0.37880E+000   0.53925E+000
     117  -0.80391E+002  -0.85258E+001  -0.24403E+001   0.30987E+001  -0.24870E+000   0.12520E+000
     118  -0.78882E+002  -0.89935E+001  -0.49689E+001   0.27568E+001   0.11485E-011   0.17652E-011
     119  -0.80391E+002  -0.85258E+001  -0.24403E+001   0.30987E+001   0.24870E+000  -0.12520E+000
     120  -0.81899E+002  -0.80582E+001   0.88415E-001   0.34407E+001   0.37880E+000  -0.53925E+000
     121  -0.82235E+002  -0.34272E+001   0.81067E+000   0.17328E+001  -0.73071E+000   0.39184E+000
     122  -0.80774E+002  -0.39063E+001  -0.16850E+001   0.13505E+001  -0.55708E+000   0.55287E-001
     123  -0.79313E+002  -0.43855E+001  -0.41807E+001   0.96825E+000   0.24765E-011  -0.52571E-012
     124  -0.80774E+002  -0.39063E+001  -0.16850E+001   0.13505E+001   0.55708E+000  -0.55287E-001
     125  -0.82235E+002  -0.34272E+001   0.81067E+000   0.17328E+001   0.73071E+000  -0.39184E+000
     126  -0.82425E+002  -0.14864E+002   0.78210E+000  -0.32125E+001  -0.32905E+000   0.47863E+000
     127  -0.80704E+002  -0.15359E+002  -0.14941E+001  -0.30777E+001  -0.32230E+000  -0.88791E-001
     128  -0.78983E+002  -0.15853E+002  -0.37703E+001  -0.29429E+001   0.37633E-011   0.14399E-010
     129  -0.80704E+002  -0.15359E+002  -0.14941E+001  -0.30777E+001   0.32230E+000   0.88791E-001
     130  -0.82425E+002  -0.14864E+002   0.78210E+000  -0.32125E+001   0.32905E+000  -0.47863E+000
     131  -0.82425E+002  -0.14864E+002   0.78210E+000   0.32125E+001   0.32905E+000   0.47863E+000
     132  -0.80704E+002  -0.15359E+002  -0.14941E+001   0.30777E+001   0.32230E+000  -0.88791E-001
     133  -0.78983E+002  -0.15853E+002  -0.37703E+001   0.29429E+001  -0.21762E-011   0.92622E-011
     134  -0.80704E+002  -0.15359E+002  -0.14941E+001   0.30777E+001  -0.32230E+000   0.88791E-001
     135  -0.82425E+002  -0.14864E+002   0.78210E+000   0.32125E+001  -0.32905E+000  -0.47863E+000
     136  -0.31400E+002  -0.75045E+001  -0.13845E+001  -0.12370E+001  -0.54664E-001  -0.39779E+000
     137  -0.30277E+002  -0.78215E+001  -0.32753E+001  -0.11810E+001  -0.61087E-001  -0.16810E+000
     138  -0.29154E+002  -0.81385E+001  -0.51661E+001  -0.11249E+001  -0.85397E-012  -0.17074E-011
     139  -0.30277E+002  -0.78215E+001  -0.32753E+001  -0.11810E+001   0.61087E-001   0.16810E+000
     140  -0.31400E+002  -0.75045E+001  -0.13845E+001  -0.12370E+001   0.54664E-001   0.39779E+000
     141  -0.31400E+002  -0.75045E+001  -0.13845E+001   0.12370E+001   0.54664E-001  -0.39779E+000
     142  -0.30277E+002  -0.78215E+001  -0.32753E+001   0.11810E+001   0.61087E-001  -0.16810E+000
     143  -0.29154E+002  -0.81385E+001  -0.51661E+001   0.11249E+001   0.55002E-012   0.24544E-011
     144  -0.30277E+002  -0.78215E+001  -0.32753E+001   0.11810E+001  -0.61087E-001   0.16810E+000
     145  -0.31400E+002  -0.75045E+001  -0.13845E+001   0.12370E+001  -0.54664E-001   0.39779E+000
     146  -0.30758E+002  -0.24085E+001  -0.14867E+001  -0.13703E+001  -0.46783E-001  -0.38248E+000
     147  -0.29432E+002  -0.20666E+001  -0.25833E+001  -0.12936E+001  -0.30125E-001  -0.16567E+000
     148  -0.28106E+002  -0.17247E+001  -0.36798E+001  -0.12170E+001   0.41895E-012  -0.50435E-011
     149  -0.29432E+002  -0.20666E+001  -0.25833E+001  -0.12936E+001   0.30125E-001   0.16567E+000
     150  -0.30758E+002  -0.24085E+001  -0.14867E+001  -0.13703E+001   0.46783E-001   0.38248E+000
     151  -0.30136E+002  -0.39700E+001  -0.13053E+001  -0.15736E+001  -0.58180E-001  -0.38140E+000
     152  -0.28937E+002  -0.39331E+001  -0.27167E+001  -0.14625E+001  -0.20636E-001  -0.15153E+000
     153  -0.27739E+002  -0.38963E+001  -0.41281E+001  -0.13514E+001   0.66558E-012  -0.24737E-011
     154  -0.28937E+002  -0.39331E+001  -0.27167E+001  -0.14625E+001   0.20636E-001   0.15153E+000
     155  -0.30136E+002  -0.39700E+001  -0.13053E+001  -0.15736E+001   0.58180E-001   0.38140E+000
     156  -0.30252E+002  -0.66218E+001  -0.12870E+001  -0.17628E+001  -0.68378E-001  -0.37800E+000
     157  -0.29171E+002  -0.69123E+001  -0.31175E+001  -0.16489E+001  -0.44911E-001  -0.13937E+000
     158  -0.28090E+002  -0.72029E+001  -0.49481E+001  -0.15350E+001   0.26551E-012  -0.68760E-013
     159  -0.29171E+002  -0.69123E+001  -0.31175E+001  -0.16489E+001   0.44911E-001   0.13937E+000
     160  -0.30252E+002  -0.66218E+001  -0.12870E+001  -0.17628E+001   0.68378E-001   0.37800E+000
     161  -0.31810E+002  -0.72970E+001  -0.13187E+001  -0.65558E-011   0.69336E-012  -0.41991E+000
     162  -0.30655E+002  -0.76181E+001  -0.31656E+001  -0.54980E-011   0.28095E-012  -0.19486E+000
     163  -0.29499E+002  -0.79392E+001  -0.50125E+001  -0.26101E-011  -0.26825E-012  -0.12446E-011
     164  -0.30655E+002  -0.76181E+001  -0.31656E+001   0.11660E-011   0.26334E-012   0.19486E+000
     165  -0.31810E+002  -0.72970E+001  -0.13187E+001   0.31119E-011   0.93171E-012   0.41991E+000
     166  -0.30252E+002  -0.66218E+001  -0.12870E+001   0.17628E+001   0.68378E-001  -0.37800E+000
     167  -0.29171E+002  -0.69123E+001  -0.31175E+001   0.16489E+001   0.44911E-001  -0.13937E+000
     168  -0.28090E+002  -0.72029E+001  -0.49481E+001   0.15350E+001  -0.31206E-013   0.39760E-011
     169  -0.29171E+002  -0.69123E+001  -0.31175E+001   0.16489E+001  -0.44911E-001   0.13937E+000
     170  -0.30252E+002  -0.66218E+001  -0.12870E+001   0.17628E+001  -0.68378E-001   0.37800E+000
     171  -0.30136E+002  -0.39700E+001  -0.13053E+001   0.15736E+001   0.58180E-001  -0.38140E+000
     172  -0.28937E+002  -0.39331E+001  -0.27167E+001   0.14625E+001   0.20636E-001  -0.15153E+000
     173  -0.27739E+002  -0.38963E+001  -0.41281E+001   0.13514E+001  -0.39263E-012   0.38736E-011
     174  -0.28937E+002  -0.39331E+001  -0.27167E+001   0.14625E+001  -0.20636E-001   0.15153E+000
     175  -0.30136E+002  -0.39700E+001  -0.13053E+001   0.15736E+001  -0.58180E-001   0.38140E+000
     176  -0.30758E+002  -0.24085E+001  -0.14867E+001   0.13703E+001   0.46783E-001  -0.38248E+000
     177  -0.29432E+002  -0.20666E+001  -0.25833E+001   0.12936E+001   0.30125E-001  -0.16567E+000
     178  -0.28106E+002  -0.17247E+001  -0.36798E+001   0.12170E+001  -0.41307E-012   0.40119E-011
     179  -0.29432E+002  -0.20666E+001  -0.25833E+001   0.12936E+001  -0.30125E-001   0.16567E+000
     180  -0.30758E+002  -0.24085E+001  -0.14867E+001   0.13703E+001  -0.46783E-001   0.38248E+000
     181  -0.56263E+001  -0.11735E+001  -0.95809E+000  -0.31090E+000  -0.27060E-001  -0.11600E+000
     182  -0.53550E+001  -0.10728E+001  -0.96603E+000  -0.30293E+000  -0.21348E-001  -0.80253E-001
     183  -0.50837E+001  -0.97204E+000  -0.97398E+000  -0.29496E+000   0.16701E-012  -0.20904E-012
     184  -0.53550E+001  -0.10728E+001  -0.96603E+000  -0.30293E+000   0.21348E-001   0.80253E-001
     185  -0.56263E+001  -0.11735E+001  -0.95809E+000  -0.31090E+000   0.27060E-001   0.11600E+000
     186  -0.59298E+001  -0.17300E+001  -0.98637E+000  -0.12362E-013  -0.28841E-012  -0.13644E+000
     187  -0.56310E+001  -0.16811E+001  -0.10581E+001  -0.90429E-013   0.97748E-013  -0.81911E-001
     188  -0.53322E+001  -0.16322E+001  -0.11299E+001   0.77225E-013   0.40238E-012   0.57702E-012
     189  -0.56310E+001  -0.16811E+001  -0.10581E+001   0.28315E-012   0.18941E-012   0.81911E-001
     190  -0.59298E+001  -0.17300E+001  -0.98637E+000   0.24336E-012   0.57958E-013   0.13644E+000
     191  -0.56263E+001  -0.11735E+001  -0.95809E+000   0.31090E+000   0.27060E-001  -0.11600E+000
     192  -0.53550E+001  -0.10728E+001  -0.96603E+000   0.30293E+000   0.21348E-001  -0.80253E-001
     193  -0.50837E+001  -0.97204E+000  -0.97398E+000   0.29496E+000  -0.58322E-013   0.40456E-012
     194  -0.53550E+001  -0.10728E+001  -0.96603E+000   0.30293E+000  -0.21348E-001   0.80253E-001
     195  -0.56263E+001  -0.11735E+001  -0.95809E+000   0.31090E+000  -0.27060E-001   0.11600E+000
     196  -0.57423E+001  -0.10743E+001  -0.10306E+001  -0.30311E+000  -0.22118E-001  -0.95666E-001
     197  -0.54684E+001  -0.95541E+000  -0.10133E+001  -0.31212E+000  -0.24401E-001  -0.72043E-001
     198  -0.51946E+001  -0.83650E+000  -0.99589E+000  -0.32113E+000   0.28230E-012  -0.10893E-012
     199  -0.54684E+001  -0.95541E+000  -0.10133E+001  -0.31212E+000   0.24401E-001   0.72043E-001
     200  -0.57423E+001  -0.10743E+001  -0.10306E+001  -0.30311E+000   0.22118E-001   0.95666E-001
     201  -0.56047E+001  -0.14760E+001  -0.90948E+000  -0.27650E+000  -0.15802E-001  -0.13927E+000
     202  -0.53292E+001  -0.14085E+001  -0.96514E+000  -0.25465E+000  -0.97772E-002  -0.86427E-001
     203  -0.50536E+001  -0.13409E+001  -0.10208E+001  -0.23280E+000  -0.39396E-013  -0.19701E-012
     204  -0.53292E+001  -0.14085E+001  -0.96514E+000  -0.25465E+000   0.97772E-002   0.86427E-001
     205  -0.56047E+001  -0.14760E+001  -0.90948E+000  -0.27650E+000   0.15802E-001   0.13927E+000
     206  -0.58144E+001  -0.17047E+001  -0.95989E+000  -0.18014E+000   0.12744E-002  -0.13932E+000
     207  -0.55239E+001  -0.16540E+001  -0.10348E+001  -0.16726E+000  -0.76240E-003  -0.83150E-001
     208  -0.52333E+001  -0.16032E+001  -0.11097E+001  -0.15439E+000   0.18320E-012   0.12087E-012
     209  -0.55239E+001  -0.16540E+001  -0.10348E+001  -0.16726E+000   0.76240E-003   0.83150E-001
     210  -0.58144E+001  -0.17047E+001  -0.95989E+000  -0.18014E+000  -0.12744E-002   0.13932E+000
     211  -0.58144E+001  -0.17047E+001  -0.95989E+000   0.18014E+000  -0.12744E-002  -0.13932E+000
     212  -0.55239E+001  -0.16540E+001  -0.10348E+001   0.16726E+000   0.76240E-003  -0.83150E-001
     213  -0.52333E+001  -0.16032E+001  -0.11097E+001   0.15439E+000   0.92802E-013   0.88069E-012
     214  -0.55239E+001  -0.16540E+001  -0.10348E+001   0.16726E+000  -0.76240E-003   0.83150E-001
     215  -0.58144E+001  -0.17047E+001  -0.95989E+000   0.18014E+000   0.12744E-002   0.13932E+000
     216  -0.56047E+001  -0.14760E+001  -0.90948E+000   0.27650E+000   0.15802E-001  -0.13927E+000
     217  -0.53292E+001  -0.14085E+001  -0.96514E+000   0.25465E+000   0.97772E-002  -0.86427E-001
     218  -0.50536E+001  -0.13409E+001  -0.10208E+001   0.23280E+000  -0.16567E-012   0.71660E-012
     219  -0.53292E+001  -0.14085E+001  -0.96514E+000   0.25465E+000  -0.97772E-002   0.86427E-001
     220  -0.56047E+001  -0.14760E+001  -0.90948E+000   0.27650E+000  -0.15802E-001   0.13927E+000
     221  -0.57423E+001  -0.10743E+001  -0.10306E+001   0.30311E+000   0.22118E-001  -0.95666E-001
     222  -0.54684E+001  -0.95541E+000  -0.10133E+001   0.31212E+000   0.24401E-001  -0.72043E-001
     223  -0.51946E+001  -0.83650E+000  -0.99589E+000   0.32113E+000   0.92450E-013   0.30987E-012
     224  -0.54684E+001  -0.95541E+000  -0.10133E+001   0.31212E+000  -0.24401E-001   0.72043E-001
     225  -0.57423E+001  -0.10743E+001  -0.10306E+001   0.30311E+000  -0.22118E-001   0.95666E-001
     226  -0.40331E+000   0.17056E+000   0.16524E+000  -0.16365E-001   0.99121E-002  -0.93941E-002
     227  -0.46732E+000   0.84733E-001   0.24146E-001  -0.15587E-001   0.51841E-002  -0.17012E-001
     228  -0.53134E+000  -0.10917E-002  -0.11695E+000  -0.14809E-001  -0.23870E-013  -0.17377E-013
     229  -0.46732E+000   0.84733E-001   0.24146E-001  -0.15587E-001  -0.51841E-002   0.17012E-001
     230  -0.40331E+000   0.17056E+000   0.16524E+000  -0.16365E-001  -0.99121E-002   0.93941E-002
     231  -0.46893E+000   0.24587E-002   0.76833E-001  -0.30804E-001   0.34680E-002  -0.10033E-001
     232  -0.51876E+000  -0.54930E-001  -0.37788E-001  -0.32043E-001  -0.17789E-003  -0.19646E-001
     233  -0.56860E+000  -0.11232E+000  -0.15241E+000  -0.33281E-001  -0.11013E-013  -0.21282E-013
     234  -0.51876E+000  -0.54930E-001  -0.37788E-001  -0.32043E-001   0.17789E-003   0.19646E-001
     235  -0.46893E+000   0.24587E-002   0.76833E-001  -0.30804E-001  -0.34680E-002   0.10033E-001
     236  -0.53122E+000  -0.12558E+000  -0.30488E-002  -0.28801E-001  -0.22339E-002  -0.12023E-001
     237  -0.56674E+000  -0.15740E+000  -0.86477E-001  -0.29593E-001  -0.30012E-002  -0.24222E-001
     238  -0.60227E+000  -0.18921E+000  -0.16990E+000  -0.30385E-001   0.29018E-013  -0.16703E-013
     239  -0.56674E+000  -0.15740E+000  -0.86477E-001  -0.29593E-001   0.30012E-002   0.24222E-001
     240  -0.53122E+000  -0.12558E+000  -0.30488E-002  -0.28801E-001   0.22339E-002   0.12023E-001
     241  -0.53247E+000  -0.12039E+000  -0.24779E-002  -0.44815E-002  -0.99532E-004  -0.12980E-001
     242  -0.56799E+000  -0.15643E+000  -0.83628E-001  -0.32642E-002   0.34654E-003  -0.25595E-001
     243  -0.60351E+000  -0.19247E+000  -0.16478E+000  -0.20470E-002   0.13149E-013  -0.64874E-014
     244  -0.56799E+000  -0.15643E+000  -0.83628E-001  -0.32642E-002  -0.34654E-003   0.25595E-001
     245  -0.53247E+000  -0.12039E+000  -0.24779E-002  -0.44815E-002   0.99532E-004   0.12980E-001
     246  -0.53705E+000  -0.15526E+000  -0.10431E-001   0.70359E-013   0.17285E-013  -0.12587E-001
     247  -0.57269E+000  -0.19266E+000  -0.94025E-001   0.64876E-013  -0.11395E-013  -0.25027E-001
     248  -0.60833E+000  -0.23006E+000  -0.17762E+000   0.40285E-013  -0.15364E-013  -0.25256E-013
     249  -0.57269E+000  -0.19266E+000  -0.94025E-001   0.28783E-013  -0.45946E-014   0.25027E-001
     250  -0.53705E+000  -0.15526E+000  -0.10431E-001   0.36388E-013  -0.18536E-013   0.12587E-001
     251  -0.53247E+000  -0.12039E+000  -0.24779E-002   0.44815E-002   0.99532E-004  -0.12980E-001
     252  -0.56799E+000  -0.15643E+000  -0.83628E-001   0.32642E-002  -0.34654E-003  -0.25595E-001
     253  -0.60351E+000  -0.19247E+000  -0.16478E+000   0.20470E-002   0.11038E-013  -0.42372E-013
     254  -0.56799E+000  -0.15643E+000  -0.83628E-001   0.32642E-002   0.34654E-003   0.25595E-001
     255  -0.53247E+000  -0.12039E+000  -0.24779E-002   0.44815E-002  -0.99532E-004   0.12980E-001
     256  -0.53122E+000  -0.12558E+000  -0.30488E-002   0.28801E-001   0.22339E-002  -0.12023E-001
     257  -0.56674E+000  -0.15740E+000  -0.86477E-001   0.29593E-001   0.30012E-002  -0.24222E-001
     258  -0.60227E+000  -0.18921E+000  -0.16990E+000   0.30385E-001   0.10781E-013  -0.15503E-013
     259  -0.56674E+000  -0.15740E+000  -0.86477E-001   0.29593E-001  -0.30012E-002   0.24222E-001
     260  -0.53122E+000  -0.12558E+000  -0.30488E-002   0.28801E-001  -0.22339E-002   0.12023E-001
     261  -0.46893E+000   0.24587E-002   0.76833E-001   0.30804E-001  -0.34680E-002  -0.10033E-001
     262  -0.51876E+000  -0.54930E-001  -0.37788E-001   0.32043E-001   0.17789E-003  -0.19646E-001
     263  -0.56860E+000  -0.11232E+000  -0.15241E+000   0.33281E-001  -0.15527E-013   0.97383E-014
     264  -0.51876E+000  -0.54930E-001  -0.37788E-001   0.32043E-001  -0.17789E-003   0.19646E-001
     265  -0.46893E+000   0.24587E-002   0.76833E-001   0.30804E-001   0.34680E-002   0.10033E-001
     266  -0.40331E+000   0.17056E+000   0.16524E+000   0.16365E-001  -0.99121E-002  -0.93941E-002
     267  -0.46732E+000   0.84733E-001   0.24146E-001   0.15587E-001  -0.51841E-002  -0.17012E-001
     268  -0.53134E+000  -0.10917E-002  -0.11695E+000   0.14809E-001  -0.29704E-013   0.11495E-013
     269  -0.46732E+000   0.84733E-001   0.24146E-001   0.15587E-001   0.51841E-002   0.17012E-001
     270  -0.40331E+000   0.17056E+000   0.16524E+000   0.16365E-001   0.99121E-002   0.93941E-002
     271  -0.39452E-001  -0.37807E-002   0.19908E-001  -0.27242E-002  -0.38640E-003  -0.52280E-002
     272  -0.39812E-001  -0.95222E-002   0.98486E-003  -0.27668E-002  -0.21654E-003   0.19107E-002
     273  -0.40173E-001  -0.15264E-001  -0.17938E-001  -0.28093E-002   0.21134E-015  -0.20978E-014
     274  -0.39812E-001  -0.95222E-002   0.98486E-003  -0.27668E-002   0.21654E-003  -0.19107E-002
     275  -0.39452E-001  -0.37807E-002   0.19908E-001  -0.27242E-002   0.38640E-003   0.52280E-002
     276  -0.39452E-001  -0.37807E-002   0.19908E-001   0.27242E-002   0.38640E-003  -0.52280E-002
     277  -0.39812E-001  -0.95222E-002   0.98486E-003   0.27668E-002   0.21654E-003   0.19107E-002
     278  -0.40173E-001  -0.15264E-001  -0.17938E-001   0.28093E-002  -0.14220E-014  -0.97383E-015
     279  -0.39812E-001  -0.95222E-002   0.98486E-003   0.27668E-002  -0.21654E-003  -0.19107E-002
     280  -0.39452E-001  -0.37807E-002   0.19908E-001   0.27242E-002  -0.38640E-003   0.52280E-002
     281  -0.47793E-001   0.74768E-002   0.12189E-001  -0.50694E-002   0.55538E-003  -0.59605E-002
     282  -0.43404E-001   0.72431E-002   0.18246E-002  -0.41543E-002   0.41329E-003   0.16201E-002
     283  -0.39016E-001   0.70095E-002  -0.85400E-002  -0.32391E-002   0.26938E-014   0.72056E-015
     284  -0.43404E-001   0.72431E-002   0.18246E-002  -0.41543E-002  -0.41329E-003  -0.16201E-002
     285  -0.47793E-001   0.74768E-002   0.12189E-001  -0.50694E-002  -0.55538E-003   0.59605E-002
     286  -0.44288E-001   0.27453E-003   0.13120E-001  -0.91813E-003   0.22435E-003  -0.53087E-002
     287  -0.41447E-001  -0.25918E-002   0.64372E-004  -0.42500E-003   0.39339E-003   0.19820E-002
     288  -0.38605E-001  -0.54581E-002  -0.12992E-001   0.68134E-004   0.15325E-014   0.47998E-015
     289  -0.41447E-001  -0.25918E-002   0.64372E-004  -0.42500E-003  -0.39339E-003  -0.19820E-002
     290  -0.44288E-001   0.27453E-003   0.13120E-001  -0.91813E-003  -0.22435E-003   0.53087E-002
     291  -0.39035E-001  -0.56939E-002   0.16817E-001  -0.11912E-002  -0.27946E-003  -0.48096E-002
     292  -0.38427E-001  -0.11166E-001  -0.26354E-003  -0.11983E-002   0.47208E-004   0.22020E-002
     293  -0.37819E-001  -0.16639E-001  -0.17344E-001  -0.12054E-002  -0.72680E-015  -0.10886E-014
     294  -0.38427E-001  -0.11166E-001  -0.26354E-003  -0.11983E-002  -0.47208E-004  -0.22020E-002
     295  -0.39035E-001  -0.56939E-002   0.16817E-001  -0.11912E-002   0.27946E-003   0.48096E-002
     296  -0.41618E-001  -0.31012E-002   0.20233E-001  -0.38959E-014  -0.32632E-014  -0.54937E-002
     297  -0.42260E-001  -0.91385E-002   0.80093E-003  -0.39186E-014  -0.82918E-015   0.17613E-002
     298  -0.42902E-001  -0.15176E-001  -0.18631E-001  -0.27642E-014   0.74058E-015  -0.68738E-015
     299  -0.42260E-001  -0.91385E-002   0.80093E-003  -0.10248E-014   0.15379E-015  -0.17613E-002
     300  -0.41618E-001  -0.31012E-002   0.20233E-001  -0.46285E-015   0.43124E-015   0.54937E-002
     301  -0.39035E-001  -0.56939E-002   0.16817E-001   0.11912E-002   0.27946E-003  -0.48096E-002
     302  -0.38427E-001  -0.11166E-001  -0.26354E-003   0.11983E-002  -0.47208E-004   0.22020E-002
     303  -0.37819E-001  -0.16639E-001  -0.17344E-001   0.12054E-002  -0.35259E-015  -0.29330E-014
     304  -0.38427E-001  -0.11166E-001  -0.26354E-003   0.11983E-002   0.47208E-004  -0.22020E-002
     305  -0.39035E-001  -0.56939E-002   0.16817E-001   0.11912E-002  -0.27946E-003   0.48096E-002
     306  -0.44288E-001   0.27453E-003   0.13120E-001   0.91813E-003  -0.22435E-003  -0.53087E-002
     307  -0.41447E-001  -0.25918E-002   0.64372E-004   0.42500E-003  -0.39339E-003   0.19820E-002
     308  -0.38605E-001  -0.54581E-002  -0.12992E-001  -0.68134E-004   0.22194E-014  -0.15106E-014
     309  -0.41447E-001  -0.25918E-002   0.64372E-004   0.42500E-003   0.39339E-003  -0.19820E-002
     310  -0.44288E-001   0.27453E-003   0.13120E-001   0.91813E-003   0.22435E-003   0.53087E-002
     311  -0.47793E-001   0.74768E-002   0.12189E-001   0.50694E-002  -0.55538E-003  -0.59605E-002
     312  -0.43404E-001   0.72431E-002   0.18246E-002   0.41543E-002  -0.41329E-003   0.16201E-002
     313  -0.39016E-001   0.70095E-002  -0.85400E-002   0.32391E-002   0.30666E-014   0.49244E-015
     314  -0.43404E-001   0.72431E-002   0.18246E-002   0.41543E-002   0.41329E-003  -0.16201E-002
     315  -0.47793E-001   0.74768E-002   0.12189E-001   0.50694E-002   0.55538E-003   0.59605E-002
     316  -0.71169E-002  -0.15474E-001  -0.15241E-001   0.27051E-003  -0.84153E-003   0.90492E-003
     317  -0.49578E-002  -0.11360E-001  -0.74768E-002  -0.38985E-005  -0.52045E-003  -0.90114E-003
     318  -0.27986E-002  -0.72468E-002   0.28698E-003  -0.27831E-003  -0.27149E-015  -0.40354E-015
     319  -0.49578E-002  -0.11360E-001  -0.74768E-002  -0.38985E-005   0.52045E-003   0.90114E-003
     320  -0.71169E-002  -0.15474E-001  -0.15241E-001   0.27051E-003   0.84153E-003  -0.90492E-003
     321  -0.40194E-002  -0.60580E-002  -0.10508E-001  -0.60518E-003  -0.45231E-003   0.66138E-003
     322  -0.24000E-002  -0.30759E-002  -0.38007E-002  -0.64645E-003  -0.24515E-003  -0.92922E-003
     323  -0.78065E-003  -0.93822E-004   0.29064E-002  -0.68772E-003   0.13528E-015  -0.39476E-015
     324  -0.24000E-002  -0.30759E-002  -0.38007E-002  -0.64645E-003   0.24515E-003   0.92922E-003
     325  -0.40194E-002  -0.60580E-002  -0.10508E-001  -0.60518E-003   0.45231E-003  -0.66138E-003
     326  -0.32410E-002  -0.18442E-002  -0.78294E-002  -0.20807E-003   0.76039E-005   0.44283E-003
     327  -0.20211E-002   0.11351E-003  -0.22439E-002  -0.12030E-003   0.26185E-004  -0.87961E-003
     328  -0.80126E-003   0.20713E-002   0.33415E-002  -0.32536E-004   0.38119E-015  -0.11601E-015
     329  -0.20211E-002   0.11351E-003  -0.22439E-002  -0.12030E-003  -0.26185E-004   0.87961E-003
     330  -0.32410E-002  -0.18442E-002  -0.78294E-002  -0.20807E-003  -0.76039E-005  -0.44283E-003
     331  -0.44689E-002  -0.48864E-002  -0.90234E-002   0.15276E-003   0.14975E-004   0.47551E-003
     332  -0.30785E-002  -0.27756E-002  -0.34025E-002   0.14009E-003  -0.93620E-005  -0.80884E-003
     333  -0.16880E-002  -0.66469E-003   0.22184E-002   0.12741E-003   0.58566E-016   0.17607E-015
     334  -0.30785E-002  -0.27756E-002  -0.34025E-002   0.14009E-003   0.93620E-005   0.80884E-003
     335  -0.44689E-002  -0.48864E-002  -0.90234E-002   0.15276E-003  -0.14975E-004  -0.47551E-003
     336  -0.33776E-002  -0.27265E-002  -0.81629E-002   0.36521E-015   0.88910E-016   0.48321E-003
     337  -0.19569E-002  -0.56963E-003  -0.24417E-002   0.28992E-015  -0.88850E-016  -0.81577E-003
     338  -0.53630E-003   0.15872E-002   0.32794E-002   0.12846E-015  -0.20240E-016   0.14034E-015
     339  -0.19569E-002  -0.56963E-003  -0.24417E-002   0.93431E-016   0.70086E-016   0.81577E-003
     340  -0.33776E-002  -0.27265E-002  -0.81629E-002   0.14447E-015  -0.85955E-016  -0.48321E-003
     341  -0.44689E-002  -0.48864E-002  -0.90234E-002  -0.15276E-003  -0.14975E-004   0.47551E-003
     342  -0.30785E-002  -0.27756E-002  -0.34025E-002  -0.14009E-003   0.93620E-005  -0.80884E-003
     343  -0.16880E-002  -0.66469E-003   0.22184E-002  -0.12741E-003   0.23548E-016   0.10234E-015
     344  -0.30785E-002  -0.27756E-002  -0.34025E-002  -0.14009E-003  -0.93620E-005   0.80884E-003
     345  -0.44689E-002  -0.48864E-002  -0.90234E-002  -0.15276E-003   0.14975E-004  -0.47551E-003
     346  -0.32410E-002  -0.18442E-002  -0.78294E-002   0.20807E-003  -0.76039E-005   0.44283E-003
     347  -0.20211E-002   0.11351E-003  -0.22439E-002   0.12030E-003  -0.26185E-004  -0.87961E-003
     348  -0.80126E-003   0.20713E-002   0.33415E-002   0.32536E-004  -0.76115E-016   0.44425E-016
     349  -0.20211E-002   0.11351E-003  -0.22439E-002   0.12030E-003   0.26185E-004   0.87961E-003
     350  -0.32410E-002  -0.18442E-002  -0.78294E-002   0.20807E-003   0.76039E-005  -0.44283E-003
     351  -0.40194E-002  -0.60580E-002  -0.10508E-001   0.60518E-003   0.45231E-003   0.66138E-003
     352  -0.24000E-002  -0.30759E-002  -0.38007E-002   0.64645E-003   0.24515E-003  -0.92922E-003
     353  -0.78065E-003  -0.93822E-004   0.29064E-002   0.68772E-003  -0.50327E-016  -0.13296E-015
     354  -0.24000E-002  -0.30759E-002  -0.38007E-002   0.64645E-003  -0.24515E-003   0.92922E-003
     355  -0.40194E-002  -0.60580E-002  -0.10508E-001   0.60518E-003  -0.45231E-003  -0.66138E-003
     356  -0.71169E-002  -0.15474E-001  -0.15241E-001  -0.27051E-003   0.84153E-003   0.90492E-003
     357  -0.49578E-002  -0.11360E-001  -0.74768E-002   0.38985E-005   0.52045E-003  -0.90114E-003
     358  -0.27986E-002  -0.72468E-002   0.28698E-003   0.27831E-003   0.35951E-016  -0.23256E-015
     359  -0.49578E-002  -0.11360E-001  -0.74768E-002   0.38985E-005  -0.52045E-003   0.90114E-003
     360  -0.71169E-002  -0.15474E-001  -0.15241E-001  -0.27051E-003  -0.84153E-003  -0.90492E-003
     361   0.14614E-002   0.37238E-002   0.34660E-002  -0.24096E-004   0.20386E-003  -0.15023E-003
     362   0.85397E-003   0.26940E-002   0.16996E-002   0.20836E-004   0.11760E-003   0.14463E-003
     363   0.24655E-003   0.16642E-002  -0.66747E-004   0.65769E-004  -0.28659E-017   0.33133E-016
     364   0.85397E-003   0.26940E-002   0.16996E-002   0.20836E-004  -0.11760E-003  -0.14463E-003
     365   0.14614E-002   0.37238E-002   0.34660E-002  -0.24096E-004  -0.20386E-003   0.15023E-003
     366   0.53109E-003   0.12414E-002   0.21360E-002   0.10345E-003   0.10553E-003  -0.10501E-003
     367   0.10667E-003   0.56680E-003   0.71688E-003   0.10249E-003   0.45248E-004   0.14236E-003
     368  -0.31774E-003  -0.10782E-003  -0.70227E-003   0.10153E-003  -0.10381E-016   0.11091E-016
     369   0.10667E-003   0.56680E-003   0.71688E-003   0.10249E-003  -0.45248E-004  -0.14236E-003
     370   0.53109E-003   0.12414E-002   0.21360E-002   0.10345E-003  -0.10553E-003   0.10501E-003
     371   0.16923E-003   0.12975E-003   0.12964E-002   0.12821E-004  -0.53062E-005  -0.65748E-004
     372  -0.88554E-004  -0.21893E-003   0.27849E-003  -0.79391E-005  -0.17398E-004   0.12063E-003
     373  -0.34634E-003  -0.56762E-003  -0.73941E-003  -0.28699E-004  -0.16734E-016  -0.17053E-016
     374  -0.88554E-004  -0.21893E-003   0.27849E-003  -0.79391E-005   0.17398E-004  -0.12063E-003
     375   0.16923E-003   0.12975E-003   0.12964E-002   0.12821E-004   0.53062E-005   0.65748E-004
     376   0.14416E-003   0.18271E-003   0.12220E-002   0.50144E-018   0.83009E-018  -0.67316E-004
     377  -0.12242E-003  -0.18814E-003   0.25669E-003   0.21176E-017  -0.29290E-017   0.10518E-003
     378  -0.38899E-003  -0.55900E-003  -0.70861E-003   0.75886E-017   0.11080E-016  -0.14792E-016
     379  -0.12242E-003  -0.18814E-003   0.25669E-003   0.12423E-016   0.21011E-016  -0.10518E-003
     380   0.14416E-003   0.18271E-003   0.12220E-002   0.13388E-016   0.13173E-016   0.67316E-004
     381   0.16923E-003   0.12975E-003   0.12964E-002  -0.12821E-004   0.53062E-005  -0.65748E-004
     382  -0.88554E-004  -0.21893E-003   0.27849E-003   0.79391E-005   0.17398E-004   0.12063E-003
     383  -0.34634E-003  -0.56762E-003  -0.73941E-003   0.28699E-004  -0.66957E-018  -0.16941E-017
     384  -0.88554E-004  -0.21893E-003   0.27849E-003   0.79391E-005  -0.17398E-004  -0.12063E-003
     385   0.16923E-003   0.12975E-003   0.12964E-002  -0.12821E-004  -0.53062E-005   0.65748E-004
     386   0.53109E-003   0.12414E-002   0.21360E-002  -0.10345E-003  -0.10553E-003  -0.10501E-003
     387   0.10667E-003   0.56680E-003   0.71688E-003  -0.10249E-003  -0.45248E-004   0.14236E-003
     388  -0.31774E-003  -0.10782E-003  -0.70227E-003  -0.10153E-003  -0.21438E-016   0.90277E-017
     389   0.10667E-003   0.56680E-003   0.71688E-003  -0.10249E-003   0.45248E-004  -0.14236E-003
     390   0.53109E-003   0.12414E-002   0.21360E-002  -0.10345E-003   0.10553E-003   0.10501E-003
     391   0.14614E-002   0.37238E-002   0.34660E-002   0.24096E-004  -0.20386E-003  -0.15023E-003
     392   0.85397E-003   0.26940E-002   0.16996E-002  -0.20836E-004  -0.11760E-003   0.14463E-003
     393   0.24655E-003   0.16642E-002  -0.66747E-004  -0.65769E-004  -0.47757E-016   0.15213E-016
     394   0.85397E-003   0.26940E-002   0.16996E-002  -0.20836E-004   0.11760E-003  -0.14463E-003
     395   0.14614E-002   0.37238E-002   0.34660E-002   0.24096E-004   0.20386E-003   0.15023E-003
     396   0.44091E-003   0.84157E-003   0.15044E-002  -0.16787E-004   0.12297E-005  -0.69516E-004
     397   0.17055E-003   0.46718E-003   0.53977E-003  -0.13727E-004   0.20356E-005   0.10317E-003
     398  -0.99815E-004   0.92785E-004  -0.42482E-003  -0.10667E-004  -0.15170E-017  -0.21892E-016
     399   0.17055E-003   0.46718E-003   0.53977E-003  -0.13727E-004  -0.20356E-005  -0.10317E-003
     400   0.44091E-003   0.84157E-003   0.15044E-002  -0.16787E-004  -0.12297E-005   0.69516E-004
     401   0.44091E-003   0.84157E-003   0.15044E-002   0.16787E-004  -0.12297E-005  -0.69516E-004
     402   0.17055E-003   0.46718E-003   0.53977E-003   0.13727E-004  -0.20356E-005   0.10317E-003
     403  -0.99815E-004   0.92785E-004  -0.42482E-003   0.10667E-004   0.17000E-017  -0.75953E-017
     404   0.17055E-003   0.46718E-003   0.53977E-003   0.13727E-004   0.20356E-005  -0.10317E-003
     405   0.44091E-003   0.84157E-003   0.15044E-002   0.16787E-004   0.12297E-005   0.69516E-004
     406  -0.23495E-003  -0.53610E-003  -0.47932E-003  -0.12377E-005  -0.29086E-004   0.16564E-004
     407  -0.14599E-003  -0.39234E-003  -0.24302E-003  -0.62476E-005  -0.16139E-004  -0.17113E-004
     408  -0.57022E-004  -0.24857E-003  -0.67109E-005  -0.11258E-004  -0.11410E-017   0.19651E-018
     409  -0.14599E-003  -0.39234E-003  -0.24302E-003  -0.62476E-005   0.16139E-004   0.17113E-004
     410  -0.23495E-003  -0.53610E-003  -0.47932E-003  -0.12377E-005   0.29086E-004  -0.16564E-004
     411  -0.89379E-004  -0.16739E-003  -0.27666E-003  -0.14969E-004  -0.15028E-004   0.10738E-004
     412  -0.29325E-004  -0.77785E-004  -0.95011E-004  -0.14213E-004  -0.57136E-005  -0.16455E-004
     413   0.30730E-004   0.11825E-004   0.86641E-004  -0.13458E-004  -0.15489E-017   0.63358E-018
     414  -0.29325E-004  -0.77785E-004  -0.95011E-004  -0.14213E-004   0.57136E-005   0.16455E-004
     415  -0.89379E-004  -0.16739E-003  -0.27666E-003  -0.14969E-004   0.15028E-004  -0.10738E-004
     416  -0.28494E-004  -0.69391E-005  -0.14560E-003  -0.16911E-005   0.77263E-006   0.56839E-005
     417   0.35628E-005   0.32236E-004  -0.29226E-004   0.12886E-005   0.30390E-005  -0.13044E-004
     418   0.35619E-004   0.71411E-004   0.87152E-004   0.42683E-005  -0.53505E-018   0.78605E-018
     419   0.35628E-005   0.32236E-004  -0.29226E-004   0.12886E-005  -0.30390E-005   0.13044E-004
     420  -0.28494E-004  -0.69391E-005  -0.14560E-003  -0.16911E-005  -0.77263E-006  -0.56839E-005
     421  -0.67373E-004  -0.11030E-003  -0.17031E-003   0.37705E-006  -0.50086E-006   0.59563E-005
     422  -0.35765E-004  -0.69139E-004  -0.66550E-004   0.14002E-006  -0.20449E-006  -0.10495E-004
     423  -0.41564E-005  -0.27979E-004   0.37209E-004  -0.97023E-007   0.10804E-018   0.52093E-018
     424  -0.35765E-004  -0.69139E-004  -0.66550E-004   0.14002E-006   0.20449E-006   0.10495E-004
     425  -0.67373E-004  -0.11030E-003  -0.17031E-003   0.37705E-006   0.50086E-006  -0.59563E-005
     426  -0.21563E-004  -0.54045E-005  -0.12341E-003   0.86228E-018   0.38635E-018   0.54561E-005
     427   0.86840E-005   0.34019E-004  -0.21652E-004   0.11594E-017   0.60086E-020  -0.10700E-004
     428   0.38931E-004   0.73442E-004   0.80106E-004   0.12931E-017  -0.45207E-018   0.33225E-018
     429   0.86840E-005   0.34019E-004  -0.21652E-004   0.92972E-018  -0.48701E-018   0.10700E-004
     430  -0.21563E-004  -0.54045E-005  -0.12341E-003   0.72972E-018  -0.44437E-018  -0.54561E-005
     431  -0.67373E-004  -0.11030E-003  -0.17031E-003  -0.37705E-006   0.50086E-006   0.59563E-005
     432  -0.35765E-004  -0.69139E-004  -0.66550E-004  -0.14002E-006   0.20449E-006  -0.10495E-004
     433  -0.41564E-005  -0.27979E-004   0.37209E-004   0.97023E-007   0.52880E-018  -0.34517E-019
     434  -0.35765E-004  -0.69139E-004  -0.66550E-004  -0.14002E-006  -0.20449E-006   0.10495E-004
     435  -0.67373E-004  -0.11030E-003  -0.17031E-003  -0.37705E-006  -0.50086E-006  -0.59563E-005
     436  -0.28494E-004  -0.69391E-005  -0.14560E-003   0.16911E-005  -0.77263E-006   0.56839E-005
     437   0.35628E-005   0.32236E-004  -0.29226E-004  -0.12886E-005  -0.30390E-005  -0.13044E-004
     438   0.35619E-004   0.71411E-004   0.87152E-004  -0.42683E-005   0.24124E-017  -0.26163E-018
     439   0.35628E-005   0.32236E-004  -0.29226E-004  -0.12886E-005   0.30390E-005   0.13044E-004
     440  -0.28494E-004  -0.69391E-005  -0.14560E-003   0.16911E-005   0.77263E-006  -0.56839E-005
     441  -0.89379E-004  -0.16739E-003  -0.27666E-003   0.14969E-004   0.15028E-004   0.10738E-004
     442  -0.29325E-004  -0.77785E-004  -0.95011E-004   0.14213E-004   0.57136E-005  -0.16455E-004
     443   0.30730E-004   0.11825E-004   0.86641E-004   0.13458E-004   0.29417E-017   0.25411E-019
     444  -0.29325E-004  -0.77785E-004  -0.95011E-004   0.14213E-004  -0.57136E-005   0.16455E-004
     445  -0.89379E-004  -0.16739E-003  -0.27666E-003   0.14969E-004  -0.15028E-004  -0.10738E-004
     446  -0.23495E-003  -0.53610E-003  -0.47932E-003   0.12377E-005   0.29086E-004   0.16564E-004
     447  -0.14599E-003  -0.39234E-003  -0.24302E-003   0.62476E-005   0.16139E-004  -0.17113E-004
     448  -0.57022E-004  -0.24857E-003  -0.67109E-005   0.11258E-004   0.23497E-017   0.38328E-018
     449  -0.14599E-003  -0.39234E-003  -0.24302E-003   0.62476E-005  -0.16139E-004   0.17113E-004
     450  -0.23495E-003  -0.53610E-003  -0.47932E-003   0.12377E-005  -0.29086E-004  -0.16564E-004
     451   0.45077E-004   0.10585E-003   0.91660E-004   0.29001E-006   0.57484E-005  -0.33965E-005
     452   0.28367E-004   0.78542E-004   0.47452E-004   0.12752E-005   0.30989E-005   0.29304E-005
     453   0.11657E-004   0.51235E-004   0.32441E-005   0.22603E-005  -0.46653E-018   0.49975E-019
     454   0.28367E-004   0.78542E-004   0.47452E-004   0.12752E-005  -0.30989E-005  -0.29304E-005
     455   0.45077E-004   0.10585E-003   0.91660E-004   0.29001E-006  -0.57484E-005   0.33965E-005
     456   0.15345E-004   0.30270E-004   0.50213E-004   0.30767E-005   0.29704E-005  -0.20954E-005
     457   0.43536E-005   0.13723E-004   0.17012E-004   0.29157E-005   0.10632E-005   0.28370E-005
     458  -0.66375E-005  -0.28243E-005  -0.16189E-004   0.27547E-005  -0.15088E-018  -0.20964E-019
     459   0.43536E-005   0.13723E-004   0.17012E-004   0.29157E-005  -0.10632E-005  -0.28370E-005
     460   0.15345E-004   0.30270E-004   0.50213E-004   0.30767E-005  -0.29704E-005   0.20954E-005
     461   0.21318E-005  -0.12976E-005   0.15443E-004   0.37005E-006  -0.11583E-006  -0.58976E-006
     462  -0.14429E-005  -0.55516E-005   0.24247E-005  -0.33559E-007  -0.42466E-006   0.14197E-005
     463  -0.50176E-005  -0.98056E-005  -0.10594E-004  -0.43717E-006   0.10279E-018  -0.16358E-019
     464  -0.14429E-005  -0.55516E-005   0.24247E-005  -0.33559E-007   0.42466E-006  -0.14197E-005
     465   0.21318E-005  -0.12976E-005   0.15443E-004   0.37005E-006   0.11583E-006   0.58976E-006
     466   0.56613E-005   0.97295E-005   0.13847E-004   0.48720E-007   0.63502E-007  -0.43533E-006
     467   0.30809E-005   0.64500E-005   0.56574E-005   0.62359E-007   0.16857E-007   0.77326E-006
     468   0.50053E-006   0.31705E-005  -0.25319E-005   0.75998E-007  -0.28103E-019   0.17272E-019
     469   0.30809E-005   0.64500E-005   0.56574E-005   0.62359E-007  -0.16857E-007  -0.77326E-006
     470   0.56613E-005   0.97295E-005   0.13847E-004   0.48720E-007  -0.63502E-007   0.43533E-006
     471   0.93079E-006  -0.12490E-005   0.89118E-005  -0.29818E-019  -0.78728E-019  -0.38319E-006
     472  -0.15040E-005  -0.43206E-005   0.96387E-006  -0.52357E-019  -0.77975E-019   0.78878E-006
     473  -0.39388E-005  -0.73922E-005  -0.69841E-005  -0.96410E-019  -0.53856E-019  -0.20196E-019
     474  -0.15040E-005  -0.43206E-005   0.96387E-006  -0.11208E-018  -0.23823E-020  -0.78878E-006
     475   0.93079E-006  -0.12490E-005   0.89118E-005  -0.10602E-018   0.25722E-019   0.38319E-006
     476   0.56613E-005   0.97295E-005   0.13847E-004  -0.48720E-007  -0.63502E-007  -0.43533E-006
     477   0.30809E-005   0.64500E-005   0.56574E-005  -0.62359E-007  -0.16857E-007   0.77326E-006
     478   0.50053E-006   0.31705E-005  -0.25319E-005  -0.75998E-007  -0.31129E-019  -0.64738E-019
     479   0.30809E-005   0.64500E-005   0.56574E-005  -0.62359E-007   0.16857E-007  -0.77326E-006
     480   0.56613E-005   0.97295E-005   0.13847E-004  -0.48720E-007   0.63502E-007   0.43533E-006
     481   0.21318E-005  -0.12976E-005   0.15443E-004  -0.37005E-006   0.11583E-006  -0.58976E-006
     482  -0.14429E-005  -0.55516E-005   0.24247E-005   0.33559E-007   0.42466E-006   0.14197E-005
     483  -0.50176E-005  -0.98056E-005  -0.10594E-004   0.43717E-006   0.30146E-019  -0.57836E-019
     484  -0.14429E-005  -0.55516E-005   0.24247E-005   0.33559E-007  -0.42466E-006  -0.14197E-005
     485   0.21318E-005  -0.12976E-005   0.15443E-004  -0.37005E-006  -0.11583E-006   0.58976E-006
     486   0.15345E-004   0.30270E-004   0.50213E-004  -0.30767E-005  -0.29704E-005  -0.20954E-005
     487   0.43536E-005   0.13723E-004   0.17012E-004  -0.29157E-005  -0.10632E-005   0.28370E-005
     488  -0.66375E-005  -0.28243E-005  -0.16189E-004  -0.27547E-005   0.86556E-019   0.13129E-019
     489   0.43536E-005   0.13723E-004   0.17012E-004  -0.29157E-005   0.10632E-005  -0.28370E-005
     490   0.15345E-004   0.30270E-004   0.50213E-004  -0.30767E-005   0.29704E-005   0.20954E-005
     491   0.45077E-004   0.10585E-003   0.91660E-004  -0.29001E-006  -0.57484E-005  -0.33965E-005
     492   0.28367E-004   0.78542E-004   0.47452E-004  -0.12752E-005  -0.30989E-005   0.29304E-005
     493   0.11657E-004   0.51235E-004   0.32441E-005  -0.22603E-005  -0.82480E-019   0.48281E-019
     494   0.28367E-004   0.78542E-004   0.47452E-004  -0.12752E-005   0.30989E-005  -0.29304E-005
     495   0.45077E-004   0.10585E-003   0.91660E-004  -0.29001E-006   0.57484E-005   0.33965E-005
     496  -0.50172E-006  -0.90406E-006  -0.10222E-005   0.27683E-007  -0.17126E-008   0.26855E-007
     497  -0.32675E-006  -0.68761E-006  -0.47991E-006   0.29672E-007   0.63503E-008  -0.50503E-007
     498  -0.15177E-006  -0.47115E-006   0.62356E-007   0.31661E-007  -0.16010E-020   0.10216E-020
     499  -0.32675E-006  -0.68761E-006  -0.47991E-006   0.29672E-007  -0.63503E-008   0.50503E-007
     500  -0.50172E-006  -0.90406E-006  -0.10222E-005   0.27683E-007   0.17126E-008  -0.26855E-007
     501  -0.28208E-007   0.15646E-006  -0.49423E-006   0.56430E-020   0.73332E-020   0.20373E-007
     502   0.11972E-006   0.34028E-006  -0.20019E-007   0.71063E-020   0.38530E-020  -0.46629E-007
     503   0.26766E-006   0.52411E-006   0.45419E-006   0.69926E-020  -0.24585E-020   0.14631E-020
     504   0.11972E-006   0.34028E-006  -0.20019E-007   0.50719E-020  -0.25074E-020   0.46629E-007
     505  -0.28208E-007   0.15646E-006  -0.49423E-006   0.47414E-020   0.27586E-021  -0.20373E-007
     506  -0.50172E-006  -0.90406E-006  -0.10222E-005  -0.27683E-007   0.17126E-008   0.26855E-007
     507  -0.32675E-006  -0.68761E-006  -0.47991E-006  -0.29672E-007  -0.63503E-008  -0.50503E-007
     508  -0.15177E-006  -0.47115E-006   0.62356E-007  -0.31661E-007  -0.49366E-020   0.43266E-020
     509  -0.32675E-006  -0.68761E-006  -0.47991E-006  -0.29672E-007   0.63503E-008   0.50503E-007
     510  -0.50172E-006  -0.90406E-006  -0.10222E-005  -0.27683E-007  -0.17126E-008  -0.26855E-007
     511  -0.97523E-006  -0.19646E-005  -0.15501E-005   0.24083E-006   0.27310E-007   0.33337E-007
     512  -0.77322E-006  -0.17155E-005  -0.93981E-006   0.24295E-006   0.27024E-007  -0.54376E-007
     513  -0.57120E-006  -0.14664E-005  -0.32948E-006   0.24507E-006  -0.19396E-020   0.10373E-020
     514  -0.77322E-006  -0.17155E-005  -0.93981E-006   0.24295E-006  -0.27024E-007   0.54376E-007
     515  -0.97523E-006  -0.19646E-005  -0.15501E-005   0.24083E-006  -0.27310E-007  -0.33337E-007
     516  -0.97523E-006  -0.19646E-005  -0.15501E-005  -0.24083E-006  -0.27310E-007   0.33337E-007
     517  -0.77322E-006  -0.17155E-005  -0.93981E-006  -0.24295E-006  -0.27024E-007  -0.54376E-007
     518  -0.57120E-006  -0.14664E-005  -0.32948E-006  -0.24507E-006  -0.62177E-020   0.67320E-020
     519  -0.77322E-006  -0.17155E-005  -0.93981E-006  -0.24295E-006   0.27024E-007   0.54376E-007
     520  -0.97523E-006  -0.19646E-005  -0.15501E-005  -0.24083E-006   0.27310E-007  -0.33337E-007
     521   0.19837E-007   0.42766E-007   0.54735E-007   0.43142E-008   0.27249E-008  -0.25304E-008
     522   0.89568E-008   0.28868E-007   0.23581E-007   0.43237E-008   0.13415E-008   0.17423E-008
     523  -0.19233E-008   0.14970E-007  -0.75722E-008   0.43332E-008   0.20781E-021   0.14792E-021
     524   0.89568E-008   0.28868E-007   0.23581E-007   0.43237E-008  -0.13415E-008  -0.17423E-008
     525   0.19837E-007   0.42766E-007   0.54735E-007   0.43142E-008  -0.27249E-008   0.25304E-008
     526   0.45157E-007   0.10741E-006   0.89649E-007  -0.49382E-008   0.29716E-008  -0.38128E-008
     527   0.31096E-007   0.88813E-007   0.51723E-007  -0.47069E-008   0.16075E-008   0.13687E-008
     528   0.17035E-007   0.70219E-007   0.13796E-007  -0.44757E-008   0.37064E-021   0.15233E-021
     529   0.31096E-007   0.88813E-007   0.51723E-007  -0.47069E-008  -0.16075E-008  -0.13687E-008
     530   0.45157E-007   0.10741E-006   0.89649E-007  -0.49382E-008  -0.29716E-008   0.38128E-008
     531  -0.54831E-008  -0.21876E-007   0.19820E-007   0.87061E-022  -0.60864E-021  -0.12479E-008
     532  -0.13182E-007  -0.31077E-007  -0.45605E-008  -0.48002E-022  -0.29230E-021   0.21159E-008
     533  -0.20881E-007  -0.40278E-007  -0.28941E-007  -0.25893E-021   0.45635E-022   0.49631E-022
     534  -0.13182E-007  -0.31077E-007  -0.45605E-008  -0.26250E-021   0.12342E-021  -0.21159E-008
     535  -0.54831E-008  -0.21876E-007   0.19820E-007  -0.18937E-021   0.17975E-021   0.12479E-008
     536   0.19837E-007   0.42766E-007   0.54735E-007  -0.43142E-008  -0.27249E-008  -0.25304E-008
     537   0.89568E-008   0.28868E-007   0.23581E-007  -0.43237E-008  -0.13415E-008   0.17423E-008
     538  -0.19233E-008   0.14970E-007  -0.75722E-008  -0.43332E-008  -0.16278E-021  -0.71344E-022
     539   0.89568E-008   0.28868E-007   0.23581E-007  -0.43237E-008   0.13415E-008  -0.17423E-008
     540   0.19837E-007   0.42766E-007   0.54735E-007  -0.43142E-008   0.27249E-008   0.25304E-008
     541   0.45157E-007   0.10741E-006   0.89649E-007   0.49382E-008  -0.29716E-008  -0.38128E-008
     542   0.31096E-007   0.88813E-007   0.51723E-007   0.47069E-008  -0.16075E-008   0.13687E-008
     543   0.17035E-007   0.70219E-007   0.13796E-007   0.44757E-008  -0.37186E-021  -0.98434E-022
     544   0.31096E-007   0.88813E-007   0.51723E-007   0.47069E-008   0.16075E-008  -0.13687E-008
     545   0.45157E-007   0.10741E-006   0.89649E-007   0.49382E-008   0.29716E-008   0.38128E-008
     546  -0.22280E-008  -0.49782E-008  -0.42117E-008   0.14003E-009  -0.21950E-009   0.16841E-009
     547  -0.14802E-008  -0.39496E-008  -0.23357E-008   0.11090E-009  -0.11983E-009  -0.72784E-010
     548  -0.73239E-009  -0.29211E-008  -0.45967E-009   0.81765E-010   0.73160E-023  -0.11267E-022
     549  -0.14802E-008  -0.39496E-008  -0.23357E-008   0.11090E-009   0.11983E-009   0.72784E-010
     550  -0.22280E-008  -0.49782E-008  -0.42117E-008   0.14003E-009   0.21950E-009  -0.16841E-009
     551  -0.10977E-008  -0.20317E-008  -0.25322E-008  -0.22810E-009  -0.16415E-009   0.96512E-010
     552  -0.56473E-009  -0.13344E-008  -0.10810E-008  -0.23331E-009  -0.74917E-010  -0.91328E-010
     553  -0.31798E-010  -0.63707E-009   0.37028E-009  -0.23851E-009   0.10439E-022  -0.13880E-022
     554  -0.56473E-009  -0.13344E-008  -0.10810E-008  -0.23331E-009   0.74917E-010   0.91328E-010
     555  -0.10977E-008  -0.20317E-008  -0.25322E-008  -0.22810E-009   0.16415E-009  -0.96512E-010
     556   0.32690E-010   0.91484E-009  -0.85277E-009  -0.10514E-022  -0.83326E-023   0.24609E-010
     557   0.35074E-009   0.12809E-008   0.17373E-009  -0.10904E-022   0.17740E-023  -0.10987E-009
     558   0.66879E-009   0.16469E-008   0.12002E-008  -0.27029E-023   0.11330E-022  -0.93821E-023
     559   0.35074E-009   0.12809E-008   0.17373E-009   0.76587E-023   0.67267E-023   0.10987E-009
     560   0.32690E-010   0.91484E-009  -0.85277E-009   0.95853E-023   0.26813E-023  -0.24609E-010
     561  -0.10977E-008  -0.20317E-008  -0.25322E-008   0.22810E-009   0.16415E-009   0.96512E-010
     562  -0.56473E-009  -0.13344E-008  -0.10810E-008   0.23331E-009   0.74917E-010  -0.91328E-010
     563  -0.31798E-010  -0.63707E-009   0.37028E-009   0.23851E-009   0.11825E-022   0.45745E-023
     564  -0.56473E-009  -0.13344E-008  -0.10810E-008   0.23331E-009  -0.74917E-010   0.91328E-010
     565  -0.10977E-008  -0.20317E-008  -0.25322E-008   0.22810E-009  -0.16415E-009  -0.96512E-010
     566  -0.22280E-008  -0.49782E-008  -0.42117E-008  -0.14003E-009   0.21950E-009   0.16841E-009
     567  -0.14802E-008  -0.39496E-008  -0.23357E-008  -0.11090E-009   0.11983E-009  -0.72784E-010
     568  -0.73239E-009  -0.29211E-008  -0.45967E-009  -0.81765E-010   0.14553E-022   0.11435E-022
     569  -0.14802E-008  -0.39496E-008  -0.23357E-008  -0.11090E-009  -0.11983E-009   0.72784E-010
     570  -0.22280E-008  -0.49782E-008  -0.42117E-008  -0.14003E-009  -0.21950E-009  -0.16841E-009
     571  -0.32781E-011  -0.33873E-010   0.32389E-010  -0.13833E-025  -0.54349E-024  -0.70500E-012
     572  -0.14512E-010  -0.46211E-010  -0.58448E-011  -0.11705E-024  -0.18614E-024   0.41593E-011
     573  -0.25745E-010  -0.58548E-010  -0.44078E-010  -0.20023E-024   0.12743E-024  -0.75945E-025
     574  -0.14512E-010  -0.46211E-010  -0.58448E-011  -0.13962E-024  -0.59284E-025  -0.41593E-011
     575  -0.32781E-011  -0.33873E-010   0.32389E-010  -0.99056E-025  -0.20242E-024   0.70500E-012
     576   0.85250E-010   0.19155E-009   0.16536E-009  -0.52562E-011   0.94540E-011  -0.61000E-011
     577   0.53986E-010   0.14673E-009   0.88432E-010  -0.39262E-011   0.50030E-011   0.33045E-011
     578   0.22722E-010   0.10192E-009   0.11505E-010  -0.25962E-011  -0.87936E-025   0.18329E-024
     579   0.53986E-010   0.14673E-009   0.88432E-010  -0.39262E-011  -0.50030E-011  -0.33045E-011
     580   0.85250E-010   0.19155E-009   0.16536E-009  -0.52562E-011  -0.94540E-011   0.61000E-011
     581   0.40986E-010   0.78836E-010   0.98874E-010   0.80311E-011   0.64603E-011  -0.34025E-011
     582   0.19737E-010   0.50261E-010   0.41294E-010   0.80616E-011   0.26147E-011   0.37319E-011
     583  -0.15119E-011   0.21685E-010  -0.16287E-010   0.80921E-011   0.20362E-024   0.11952E-024
     584   0.19737E-010   0.50261E-010   0.41294E-010   0.80616E-011  -0.26147E-011  -0.37319E-011
     585   0.40986E-010   0.78836E-010   0.98874E-010   0.80311E-011  -0.64603E-011   0.34025E-011
     586   0.40986E-010   0.78836E-010   0.98874E-010  -0.80311E-011  -0.64603E-011  -0.34025E-011
     587   0.19737E-010   0.50261E-010   0.41294E-010  -0.80616E-011  -0.26147E-011   0.37319E-011
     588  -0.15119E-011   0.21685E-010  -0.16287E-010  -0.80921E-011   0.68599E-025  -0.37897E-024
     589   0.19737E-010   0.50261E-010   0.41294E-010  -0.80616E-011   0.26147E-011  -0.37319E-011
     590   0.40986E-010   0.78836E-010   0.98874E-010  -0.80311E-011   0.64603E-011   0.34025E-011
     591   0.85250E-010   0.19155E-009   0.16536E-009   0.52562E-011  -0.94540E-011  -0.61000E-011
     592   0.53986E-010   0.14673E-009   0.88432E-010   0.39262E-011  -0.50030E-011   0.33045E-011
     593   0.22722E-010   0.10192E-009   0.11505E-010   0.25962E-011   0.37745E-024  -0.55044E-024
     594   0.53986E-010   0.14673E-009   0.88432E-010   0.39262E-011   0.50030E-011  -0.33045E-011
     595   0.85250E-010   0.19155E-009   0.16536E-009   0.52562E-011   0.94540E-011   0.61000E-011
     596  -0.28603E-011  -0.62727E-011  -0.55247E-011   0.16348E-012  -0.32347E-012   0.18776E-012
     597  -0.17690E-011  -0.46720E-011  -0.28757E-011   0.11917E-012  -0.16818E-012  -0.12396E-012
     598  -0.67762E-012  -0.30712E-011  -0.22673E-012   0.74868E-013  -0.30901E-026  -0.87248E-027
     599  -0.17690E-011  -0.46720E-011  -0.28757E-011   0.11917E-012   0.16818E-012   0.12396E-012
     600  -0.28603E-011  -0.62727E-011  -0.55247E-011   0.16348E-012   0.32347E-012  -0.18776E-012
     601  -0.13907E-011  -0.25999E-011  -0.33050E-011  -0.25427E-012  -0.20937E-012   0.10515E-012
     602  -0.66591E-012  -0.16152E-011  -0.13596E-011  -0.24781E-012  -0.76856E-013  -0.12869E-012
     603   0.58915E-013  -0.63048E-012   0.58583E-012  -0.24136E-012  -0.10427E-025   0.37155E-027
     604  -0.66591E-012  -0.16152E-011  -0.13596E-011  -0.24781E-012   0.76856E-013   0.12869E-012
     605  -0.13907E-011  -0.25999E-011  -0.33050E-011  -0.25427E-012   0.20937E-012  -0.10515E-012
     606   0.78822E-013   0.10729E-011  -0.10853E-011  -0.30797E-026   0.29710E-026   0.22538E-013
     607   0.43714E-012   0.14416E-011   0.15656E-012  -0.19019E-026  -0.12163E-026  -0.13342E-012
     608   0.79545E-012   0.18102E-011   0.13984E-011  -0.25196E-026  -0.68181E-026   0.10717E-026
     609   0.43714E-012   0.14416E-011   0.15656E-012  -0.69333E-026  -0.36552E-026   0.13342E-012
     610   0.78822E-013   0.10729E-011  -0.10853E-011  -0.95515E-026   0.93500E-027  -0.22538E-013
     611  -0.13907E-011  -0.25999E-011  -0.33050E-011   0.25427E-012   0.20937E-012   0.10515E-012
     612  -0.66591E-012  -0.16152E-011  -0.13596E-011   0.24781E-012   0.76856E-013  -0.12869E-012
     613   0.58915E-013  -0.63048E-012   0.58583E-012   0.24136E-012   0.18735E-027   0.44070E-026
     614  -0.66591E-012  -0.16152E-011  -0.13596E-011   0.24781E-012  -0.76856E-013   0.12869E-012
     615  -0.13907E-011  -0.25999E-011  -0.33050E-011   0.25427E-012  -0.20937E-012  -0.10515E-012
     616  -0.28603E-011  -0.62727E-011  -0.55247E-011  -0.16348E-012   0.32347E-012   0.18776E-012
     617  -0.17690E-011  -0.46720E-011  -0.28757E-011  -0.11917E-012   0.16818E-012  -0.12396E-012
     618  -0.67762E-012  -0.30712E-011  -0.22673E-012  -0.74868E-013  -0.37439E-026   0.82752E-026
     619  -0.17690E-011  -0.46720E-011  -0.28757E-011  -0.11917E-012  -0.16818E-012   0.12396E-012
     620  -0.28603E-011  -0.62727E-011  -0.55247E-011  -0.16348E-012  -0.32347E-012  -0.18776E-012
     621   0.81766E-013   0.17745E-012   0.15904E-012  -0.44301E-014   0.93990E-014  -0.50700E-014
     622   0.49332E-013   0.12918E-012   0.80887E-013  -0.31752E-014   0.48522E-014   0.38701E-014
     623   0.16898E-013   0.80908E-013   0.27358E-014  -0.19203E-014  -0.11497E-027   0.76174E-029
     624   0.49332E-013   0.12918E-012   0.80887E-013  -0.31752E-014  -0.48522E-014  -0.38701E-014
     625   0.81766E-013   0.17745E-012   0.15904E-012  -0.44301E-014  -0.93990E-014   0.50700E-014
     626   0.39950E-013   0.74054E-013   0.95514E-013   0.70521E-014   0.58652E-014  -0.28818E-014
     627   0.18645E-013   0.44932E-013   0.38654E-013   0.67111E-014   0.20082E-014   0.38044E-014
     628  -0.26592E-014   0.15809E-013  -0.18205E-013   0.63701E-014  -0.15228E-027   0.14853E-028
     629   0.18645E-013   0.44932E-013   0.38654E-013   0.67111E-014  -0.20082E-014  -0.38044E-014
     630   0.39950E-013   0.74054E-013   0.95514E-013   0.70521E-014  -0.58652E-014   0.28818E-014
     631  -0.18661E-014  -0.29340E-013   0.31990E-013   0.43866E-027   0.17024E-027  -0.69364E-015
     632  -0.12041E-013  -0.39314E-013  -0.35777E-014   0.32331E-027  -0.16465E-027   0.37387E-014
     633  -0.22216E-013  -0.49289E-013  -0.39146E-013   0.85296E-028  -0.19045E-027  -0.11303E-028
     634  -0.12041E-013  -0.39314E-013  -0.35777E-014  -0.40417E-028   0.27672E-028  -0.37387E-014
     635  -0.18661E-014  -0.29340E-013   0.31990E-013  -0.43486E-028  -0.63294E-028   0.69364E-015
     636   0.39950E-013   0.74054E-013   0.95514E-013  -0.70521E-014  -0.58652E-014  -0.28818E-014
     637   0.18645E-013   0.44932E-013   0.38654E-013  -0.67111E-014  -0.20082E-014   0.38044E-014
     638  -0.26592E-014   0.15809E-013  -0.18205E-013  -0.63701E-014  -0.30904E-028  -0.16214E-027
     639   0.18645E-013   0.44932E-013   0.38654E-013  -0.67111E-014   0.20082E-014  -0.38044E-014
     640   0.39950E-013   0.74054E-013   0.95514E-013  -0.70521E-014   0.58652E-014   0.28818E-014
     641   0.81766E-013   0.17745E-012   0.15904E-012   0.44301E-014  -0.93990E-014  -0.50700E-014
     642   0.49332E-013   0.12918E-012   0.80887E-013   0.31752E-014  -0.48522E-014   0.38701E-014
     643   0.16898E-013   0.80908E-013   0.27358E-014   0.19203E-014   0.12944E-027  -0.27938E-027
     644   0.49332E-013   0.12918E-012   0.80887E-013   0.31752E-014   0.48522E-014  -0.38701E-014
     645   0.81766E-013   0.17745E-012   0.15904E-012   0.44301E-014   0.93990E-014   0.50700E-014
     646   0.27119E-016   0.69586E-015  -0.83354E-015  -0.62993E-029  -0.41370E-029   0.18241E-016
     647   0.28378E-015   0.93956E-015   0.65976E-016  -0.48453E-029   0.10441E-029  -0.93137E-016
     648   0.54043E-015   0.11833E-014   0.96549E-015  -0.15569E-029   0.32521E-029   0.47089E-030
     649   0.28378E-015   0.93956E-015   0.65976E-016   0.78886E-030   0.90625E-030   0.93137E-016
     650   0.27119E-016   0.69586E-015  -0.83354E-015   0.12511E-029   0.15395E-029  -0.18241E-016
     651  -0.20460E-014  -0.43895E-014  -0.39943E-014   0.10646E-015  -0.23700E-015   0.12067E-015
     652  -0.12119E-014  -0.31370E-014  -0.19940E-014   0.75134E-016  -0.12224E-015  -0.10338E-015
     653  -0.37773E-015  -0.18845E-014   0.62515E-017   0.43808E-016   0.89468E-029  -0.33188E-029
     654  -0.12119E-014  -0.31370E-014  -0.19940E-014   0.75134E-016   0.12224E-015   0.10338E-015
     655  -0.20460E-014  -0.43895E-014  -0.39943E-014   0.10646E-015   0.23700E-015  -0.12067E-015
     656  -0.10094E-014  -0.18468E-014  -0.24139E-014  -0.17128E-015  -0.14402E-015   0.69453E-016
     657  -0.46404E-015  -0.10987E-014  -0.96402E-015  -0.16027E-015  -0.47031E-016  -0.98256E-016
     658   0.81353E-016  -0.35061E-015   0.48587E-015  -0.14925E-015   0.67395E-029  -0.19306E-029
     659  -0.46404E-015  -0.10987E-014  -0.96402E-015  -0.16027E-015   0.47031E-016   0.98256E-016
     660  -0.10094E-014  -0.18468E-014  -0.24139E-014  -0.17128E-015   0.14402E-015  -0.69453E-016
     661  -0.10094E-014  -0.18468E-014  -0.24139E-014   0.17128E-015   0.14402E-015   0.69453E-016
     662  -0.46404E-015  -0.10987E-014  -0.96402E-015   0.16027E-015   0.47031E-016  -0.98256E-016
     663   0.81353E-016  -0.35061E-015   0.48587E-015   0.14925E-015   0.66156E-030   0.22618E-029
     664  -0.46404E-015  -0.10987E-014  -0.96402E-015   0.16027E-015  -0.47031E-016   0.98256E-016
     665  -0.10094E-014  -0.18468E-014  -0.24139E-014   0.17128E-015  -0.14402E-015  -0.69453E-016
     666  -0.20460E-014  -0.43895E-014  -0.39943E-014  -0.10646E-015   0.23700E-015   0.12067E-015
     667  -0.12119E-014  -0.31370E-014  -0.19940E-014  -0.75134E-016   0.12224E-015  -0.10338E-015
     668  -0.37773E-015  -0.18845E-014   0.62515E-017  -0.43808E-016  -0.64879E-030   0.30414E-029
     669  -0.12119E-014  -0.31370E-014  -0.19940E-014  -0.75134E-016  -0.12224E-015   0.10338E-015
     670  -0.20460E-014  -0.43895E-014  -0.39943E-014  -0.10646E-015  -0.23700E-015  -0.12067E-015
     671  -0.20177E-018  -0.14545E-016   0.19220E-016   0.52963E-031   0.34173E-031  -0.42322E-018
     672  -0.59642E-017  -0.19914E-016  -0.97173E-018   0.58121E-031   0.74329E-032   0.20630E-017
     673  -0.11727E-016  -0.25284E-016  -0.21163E-016   0.59914E-031  -0.23435E-031  -0.29262E-031
     674  -0.59642E-017  -0.19914E-016  -0.97173E-018   0.33180E-031  -0.23686E-031  -0.20630E-017
     675  -0.20177E-018  -0.14545E-016   0.19220E-016   0.90398E-032  -0.19810E-031   0.42322E-018
     676   0.45096E-016   0.95897E-016   0.88421E-016  -0.22891E-017   0.52524E-017  -0.25621E-017
     677   0.26292E-016   0.67506E-016   0.43469E-016  -0.15938E-017   0.27150E-017   0.23935E-017
     678   0.74892E-017   0.39115E-016  -0.14839E-017  -0.89857E-018  -0.62231E-031   0.10736E-030
     679   0.26292E-016   0.67506E-016   0.43469E-016  -0.15938E-017  -0.27150E-017  -0.23935E-017
     680   0.45096E-016   0.95897E-016   0.88421E-016  -0.22891E-017  -0.52524E-017   0.25621E-017
     681   0.22447E-016   0.40676E-016   0.53821E-016   0.36715E-017   0.31279E-017  -0.14927E-017
     682   0.10164E-016   0.23796E-016   0.21248E-016   0.33950E-017   0.98971E-018   0.22283E-017
     683  -0.21187E-017   0.69155E-017  -0.11324E-016   0.31185E-017   0.37076E-032   0.43279E-031
     684   0.10164E-016   0.23796E-016   0.21248E-016   0.33950E-017  -0.98971E-018  -0.22283E-017
     685   0.22447E-016   0.40676E-016   0.53821E-016   0.36715E-017  -0.31279E-017   0.14927E-017
     686   0.22447E-016   0.40676E-016   0.53821E-016  -0.36715E-017  -0.31279E-017  -0.14927E-017
     687   0.10164E-016   0.23796E-016   0.21248E-016  -0.33950E-017  -0.98971E-018   0.22283E-017
     688  -0.21187E-017   0.69155E-017  -0.11324E-016  -0.31185E-017   0.41137E-032  -0.13352E-031
     689   0.10164E-016   0.23796E-016   0.21248E-016  -0.33950E-017   0.98971E-018  -0.22283E-017
     690   0.22447E-016   0.40676E-016   0.53821E-016  -0.36715E-017   0.31279E-017   0.14927E-017
     691   0.45096E-016   0.95897E-016   0.88421E-016   0.22891E-017  -0.52524E-017  -0.25621E-017
     692   0.26292E-016   0.67506E-016   0.43469E-016   0.15938E-017  -0.27150E-017   0.23935E-017
     693   0.74892E-017   0.39115E-016  -0.14839E-017   0.89857E-018   0.12489E-030   0.10869E-031
     694   0.26292E-016   0.67506E-016   0.43469E-016   0.15938E-017   0.27150E-017  -0.23935E-017
     695   0.45096E-016   0.95897E-016   0.88421E-016   0.22891E-017   0.52524E-017   0.25621E-017
     696  -0.88487E-018  -0.18669E-017  -0.17411E-017   0.44144E-019  -0.10336E-018   0.48780E-019
     697  -0.50931E-018  -0.12979E-017  -0.84519E-018   0.30356E-019  -0.53633E-019  -0.48735E-019
     698  -0.13375E-018  -0.72895E-018   0.50759E-019   0.16567E-019  -0.26707E-032  -0.46945E-033
     699  -0.50931E-018  -0.12979E-017  -0.84519E-018   0.30356E-019   0.53633E-019   0.48735E-019
     700  -0.88487E-018  -0.18669E-017  -0.17411E-017   0.44144E-019   0.10336E-018  -0.48780E-019
     701  -0.44439E-018  -0.79808E-018  -0.10676E-017  -0.70136E-019  -0.60592E-019   0.28725E-019
     702  -0.19879E-018  -0.46028E-018  -0.41745E-018  -0.64323E-019  -0.18786E-019  -0.44789E-019
     703   0.46811E-019  -0.12249E-018   0.23270E-018  -0.58511E-019  -0.15609E-032  -0.99306E-033
     704  -0.19879E-018  -0.46028E-018  -0.41745E-018  -0.64323E-019   0.18786E-019   0.44789E-019
     705  -0.44439E-018  -0.79808E-018  -0.10676E-017  -0.70136E-019   0.60592E-019  -0.28725E-019
     706  -0.39075E-020   0.27071E-018  -0.39405E-018  -0.10130E-032  -0.90391E-033   0.86701E-020
     707   0.11173E-018   0.37734E-018   0.10294E-019  -0.69900E-033  -0.90278E-035  -0.40843E-019
     708   0.22737E-018   0.48397E-018   0.41464E-018   0.83977E-034   0.99235E-033  -0.10113E-032
     709   0.11173E-018   0.37734E-018   0.10294E-019   0.10140E-032   0.20985E-033   0.40843E-019
     710  -0.39075E-020   0.27071E-018  -0.39405E-018   0.14751E-032  -0.67316E-033  -0.86701E-020
     711  -0.44439E-018  -0.79808E-018  -0.10676E-017   0.70136E-019   0.60592E-019   0.28725E-019
     712  -0.19879E-018  -0.46028E-018  -0.41745E-018   0.64323E-019   0.18786E-019  -0.44789E-019
     713   0.46811E-019  -0.12249E-018   0.23270E-018   0.58511E-019   0.13312E-032   0.53936E-033
     714  -0.19879E-018  -0.46028E-018  -0.41745E-018   0.64323E-019  -0.18786E-019   0.44789E-019
     715  -0.44439E-018  -0.79808E-018  -0.10676E-017   0.70136E-019  -0.60592E-019  -0.28725E-019
     716  -0.88487E-018  -0.18669E-017  -0.17411E-017  -0.44144E-019   0.10336E-018   0.48780E-019
     717  -0.50931E-018  -0.12979E-017  -0.84519E-018  -0.30356E-019   0.53633E-019  -0.48735E-019
     718  -0.13375E-018  -0.72895E-018   0.50759E-019  -0.16567E-019   0.22788E-033   0.15968E-032
     719  -0.50931E-018  -0.12979E-017  -0.84519E-018  -0.30356E-019  -0.53633E-019   0.48735E-019
     720  -0.88487E-018  -0.18669E-017  -0.17411E-017  -0.44144E-019  -0.10336E-018  -0.48780E-019
     721   0.31111E-019   0.65200E-019   0.61412E-019  -0.15848E-020   0.36397E-020  -0.17295E-020
     722   0.17714E-019   0.44863E-019   0.29498E-019  -0.10773E-020   0.18972E-020   0.18239E-020
     723   0.43174E-020   0.24527E-019  -0.24149E-020  -0.56972E-021  -0.45680E-034   0.36864E-034
     724   0.17714E-019   0.44863E-019   0.29498E-019  -0.10773E-020  -0.18972E-020  -0.18239E-020
     725   0.31111E-019   0.65200E-019   0.61412E-019  -0.15848E-020  -0.36397E-020   0.17295E-020
     726   0.15752E-019   0.28076E-019   0.37921E-019   0.24845E-020   0.21073E-020  -0.10285E-020
     727   0.69724E-020   0.15998E-019   0.14707E-019   0.22653E-020   0.64520E-021   0.16624E-020
     728  -0.18075E-020   0.39194E-020  -0.85063E-020   0.20461E-020  -0.18244E-034   0.29999E-034
     729   0.69724E-020   0.15998E-019   0.14707E-019   0.22653E-020  -0.64520E-021  -0.16624E-020
     730   0.15752E-019   0.28076E-019   0.37921E-019   0.24845E-020  -0.21073E-020   0.10285E-020
     731   0.39347E-021  -0.90486E-020   0.14429E-019   0.44011E-034   0.30516E-034  -0.32744E-021
     732  -0.37695E-020  -0.12868E-019  -0.84128E-022   0.45327E-034   0.79934E-035   0.15009E-020
     733  -0.79325E-020  -0.16688E-019  -0.14598E-019   0.24638E-034  -0.11285E-034   0.69589E-035
     734  -0.37695E-020  -0.12868E-019  -0.84128E-022  -0.12977E-034   0.18714E-034  -0.15009E-020
     735   0.39347E-021  -0.90486E-020   0.14429E-019  -0.28212E-034   0.45562E-034   0.32744E-021
     736   0.15752E-019   0.28076E-019   0.37921E-019  -0.24845E-020  -0.21073E-020  -0.10285E-020
     737   0.69724E-020   0.15998E-019   0.14707E-019  -0.22653E-020  -0.64520E-021   0.16624E-020
     738  -0.18075E-020   0.39194E-020  -0.85063E-020  -0.20461E-020  -0.14106E-034  -0.32820E-034
     739   0.69724E-020   0.15998E-019   0.14707E-019  -0.22653E-020   0.64520E-021  -0.16624E-020
     740   0.15752E-019   0.28076E-019   0.37921E-019  -0.24845E-020   0.21073E-020   0.10285E-020
     741   0.31111E-019   0.65200E-019   0.61412E-019   0.15848E-020  -0.36397E-020  -0.17295E-020
     742   0.17714E-019   0.44863E-019   0.29498E-019   0.10773E-020  -0.18972E-020   0.18239E-020
     743   0.43174E-020   0.24527E-019  -0.24149E-020   0.56972E-021   0.36088E-035  -0.56424E-034
     744   0.17714E-019   0.44863E-019   0.29498E-019   0.10773E-020   0.18972E-020  -0.18239E-020
     745   0.31111E-019   0.65200E-019   0.61412E-019   0.15848E-020   0.36397E-020   0.17295E-020
