    NODE   SXX         SYY         SZZ         SXY         SYZ         SZX  
       1  -0.19086E+001  -0.26753E+001  -0.12515E+002  -0.41494E+001  -0.42248E+001  -0.10714E+001
       2  -0.59022E+001  -0.25490E+001  -0.13482E+002  -0.30902E+001  -0.63630E+001  -0.91044E+000
       3  -0.98957E+001  -0.24227E+001  -0.14449E+002  -0.20310E+001   0.58666E-010   0.32413E-010
       4  -0.59022E+001  -0.25490E+001  -0.13482E+002  -0.30902E+001   0.63630E+001   0.91044E+000
       5  -0.19086E+001  -0.26753E+001  -0.12515E+002  -0.41494E+001   0.42248E+001   0.10714E+001
       6   0.12517E+001  -0.48617E+001  -0.75461E+001  -0.43966E+001  -0.37831E+001  -0.42688E+000
       7  -0.44510E+001  -0.86908E+001  -0.10525E+002  -0.45569E+001  -0.59688E+001  -0.13212E+001
       8  -0.10154E+002  -0.12520E+002  -0.13503E+002  -0.47172E+001   0.55017E-010  -0.41918E-010
       9  -0.44510E+001  -0.86908E+001  -0.10525E+002  -0.45569E+001   0.59688E+001   0.13212E+001
      10   0.12517E+001  -0.48617E+001  -0.75461E+001  -0.43966E+001   0.37831E+001   0.42688E+000
      11   0.57867E+000  -0.10777E+002  -0.42368E+001  -0.16531E+001  -0.16073E+001  -0.70210E+000
      12  -0.55285E+001  -0.16430E+002  -0.88930E+001  -0.28799E+001  -0.37994E+001  -0.31707E+001
      13  -0.11636E+002  -0.22083E+002  -0.13549E+002  -0.41066E+001   0.43945E-010  -0.10091E-009
      14  -0.55285E+001  -0.16430E+002  -0.88930E+001  -0.28799E+001   0.37994E+001   0.31707E+001
      15   0.57867E+000  -0.10777E+002  -0.42368E+001  -0.16531E+001   0.16073E+001   0.70210E+000
      16  -0.54310E+001  -0.15373E+002  -0.51890E+001   0.64393E+000  -0.32854E+000  -0.22168E+001
      17  -0.86536E+001  -0.14915E+002  -0.10763E+002   0.54690E-001  -0.17535E+001  -0.52730E+001
      18  -0.11876E+002  -0.14456E+002  -0.16337E+002  -0.53455E+000   0.25156E-010   0.55992E-010
      19  -0.86536E+001  -0.14915E+002  -0.10763E+002   0.54690E-001   0.17535E+001   0.52730E+001
      20  -0.54310E+001  -0.15373E+002  -0.51890E+001   0.64393E+000   0.32854E+000   0.22168E+001
      21  -0.76073E+001  -0.16241E+002  -0.44821E+001  -0.22669E-009   0.18249E-009  -0.28118E+001
      22  -0.92502E+001  -0.11802E+002  -0.11307E+002  -0.25223E-009   0.10746E-009  -0.59365E+001
      23  -0.10893E+002  -0.73628E+001  -0.18133E+002  -0.18910E-009  -0.36131E-010   0.27899E-009
      24  -0.92502E+001  -0.11802E+002  -0.11307E+002  -0.13940E-009  -0.45333E-010   0.59365E+001
      25  -0.76073E+001  -0.16241E+002  -0.44821E+001  -0.17836E-009   0.14040E-010   0.28118E+001
      26  -0.54310E+001  -0.15373E+002  -0.51890E+001  -0.64393E+000   0.32854E+000  -0.22168E+001
      27  -0.86536E+001  -0.14915E+002  -0.10763E+002  -0.54690E-001   0.17535E+001  -0.52730E+001
      28  -0.11876E+002  -0.14456E+002  -0.16337E+002   0.53455E+000  -0.14805E-009   0.27106E-009
      29  -0.86536E+001  -0.14915E+002  -0.10763E+002  -0.54690E-001  -0.17535E+001   0.52730E+001
      30  -0.54310E+001  -0.15373E+002  -0.51890E+001  -0.64393E+000  -0.32854E+000   0.22168E+001
      31   0.57867E+000  -0.10777E+002  -0.42368E+001   0.16531E+001   0.16073E+001  -0.70210E+000
      32  -0.55285E+001  -0.16430E+002  -0.88930E+001   0.28799E+001   0.37994E+001  -0.31707E+001
      33  -0.11636E+002  -0.22083E+002  -0.13549E+002   0.41066E+001  -0.16232E-009   0.51488E-010
      34  -0.55285E+001  -0.16430E+002  -0.88930E+001   0.28799E+001  -0.37994E+001   0.31707E+001
      35   0.57867E+000  -0.10777E+002  -0.42368E+001   0.16531E+001  -0.16073E+001   0.70210E+000
      36   0.12517E+001  -0.48617E+001  -0.75461E+001   0.43966E+001   0.37831E+001  -0.42688E+000
      37  -0.44510E+001  -0.86908E+001  -0.10525E+002   0.45569E+001   0.59688E+001  -0.13212E+001
      38  -0.10154E+002  -0.12520E+002  -0.13503E+002   0.47172E+001  -0.45236E-010  -0.69157E-010
      39  -0.44510E+001  -0.86908E+001  -0.10525E+002   0.45569E+001  -0.59688E+001   0.13212E+001
      40   0.12517E+001  -0.48617E+001  -0.75461E+001   0.43966E+001  -0.37831E+001   0.42688E+000
      41  -0.19086E+001  -0.26753E+001  -0.12515E+002   0.41494E+001   0.42248E+001  -0.10714E+001
      42  -0.59022E+001  -0.25490E+001  -0.13482E+002   0.30902E+001   0.63630E+001  -0.91044E+000
      43  -0.98957E+001  -0.24227E+001  -0.14449E+002   0.20310E+001   0.24134E-010  -0.59588E-010
      44  -0.59022E+001  -0.25490E+001  -0.13482E+002   0.30902E+001  -0.63630E+001   0.91044E+000
      45  -0.19086E+001  -0.26753E+001  -0.12515E+002   0.41494E+001  -0.42248E+001   0.10714E+001
      46  -0.22183E+000   0.15665E+000  -0.11703E+002  -0.14083E+001  -0.44965E+001   0.27307E+001
      47  -0.32389E+001   0.42130E+000  -0.12414E+002  -0.11753E+001  -0.53750E+001   0.30710E+001
      48  -0.62559E+001   0.68595E+000  -0.13126E+002  -0.94227E+000   0.10461E-010   0.19013E-010
      49  -0.32389E+001   0.42130E+000  -0.12414E+002  -0.11753E+001   0.53750E+001  -0.30710E+001
      50  -0.22183E+000   0.15665E+000  -0.11703E+002  -0.14083E+001   0.44965E+001  -0.27307E+001
      51  -0.24307E+001  -0.22697E+001  -0.61038E+001   0.93328E+000  -0.46629E+000   0.13285E+001
      52  -0.73968E+001  -0.65112E+001  -0.96700E+001  -0.70252E+000  -0.23131E+001   0.33488E+000
      53  -0.12363E+002  -0.10753E+002  -0.13236E+002  -0.23383E+001   0.26086E-010  -0.12067E-009
      54  -0.73968E+001  -0.65112E+001  -0.96700E+001  -0.70252E+000   0.23131E+001  -0.33488E+000
      55  -0.24307E+001  -0.22697E+001  -0.61038E+001   0.93328E+000   0.46629E+000  -0.13285E+001
      56  -0.24307E+001  -0.22697E+001  -0.61038E+001  -0.93328E+000   0.46629E+000   0.13285E+001
      57  -0.73968E+001  -0.65112E+001  -0.96700E+001   0.70252E+000   0.23131E+001   0.33488E+000
      58  -0.12363E+002  -0.10753E+002  -0.13236E+002   0.23383E+001  -0.74240E-010   0.58613E-010
      59  -0.73968E+001  -0.65112E+001  -0.96700E+001   0.70252E+000  -0.23131E+001  -0.33488E+000
      60  -0.24307E+001  -0.22697E+001  -0.61038E+001  -0.93328E+000  -0.46629E+000  -0.13285E+001
      61  -0.22183E+000   0.15665E+000  -0.11703E+002   0.14083E+001   0.44965E+001   0.27307E+001
      62  -0.32389E+001   0.42130E+000  -0.12414E+002   0.11753E+001   0.53750E+001   0.30710E+001
      63  -0.62559E+001   0.68595E+000  -0.13126E+002   0.94227E+000   0.59364E-011  -0.43493E-010
      64  -0.32389E+001   0.42130E+000  -0.12414E+002   0.11753E+001  -0.53750E+001  -0.30710E+001
      65  -0.22183E+000   0.15665E+000  -0.11703E+002   0.14083E+001  -0.44965E+001  -0.27307E+001
      66   0.40248E+000   0.55221E+000  -0.79058E+001  -0.90174E+000  -0.32495E+001   0.25187E+001
      67  -0.38992E+001  -0.22401E+001  -0.10077E+002  -0.16299E+001  -0.45344E+001   0.23270E+001
      68  -0.82008E+001  -0.50325E+001  -0.12248E+002  -0.23580E+001   0.12342E-010  -0.19318E-010
      69  -0.38992E+001  -0.22401E+001  -0.10077E+002  -0.16299E+001   0.45344E+001  -0.23270E+001
      70   0.40248E+000   0.55221E+000  -0.79058E+001  -0.90174E+000   0.32495E+001  -0.25187E+001
      71  -0.76443E+001  -0.64751E+001  -0.84524E+001   0.14572E+001   0.81771E+000   0.28353E-001
      72  -0.11303E+002  -0.66794E+001  -0.13153E+002   0.46290E+000  -0.66429E+000  -0.13415E+001
      73  -0.14961E+002  -0.68838E+001  -0.17853E+002  -0.53140E+000   0.20818E-011  -0.12082E-009
      74  -0.11303E+002  -0.66794E+001  -0.13153E+002   0.46290E+000   0.66429E+000   0.13415E+001
      75  -0.76443E+001  -0.64751E+001  -0.84524E+001   0.14572E+001  -0.81771E+000  -0.28353E-001
      76  -0.94003E+001  -0.74630E+001  -0.88060E+001  -0.42604E-009   0.29590E-010  -0.29372E+000
      77  -0.12371E+002  -0.52381E+001  -0.14705E+002  -0.43792E-009  -0.19274E-010  -0.17696E+001
      78  -0.15342E+002  -0.30133E+001  -0.20604E+002  -0.28059E-009  -0.63591E-010   0.94551E-010
      79  -0.12371E+002  -0.52381E+001  -0.14705E+002  -0.59176E-010  -0.36014E-010   0.17696E+001
      80  -0.94003E+001  -0.74630E+001  -0.88060E+001  -0.69736E-011  -0.12985E-010   0.29372E+000
      81  -0.76443E+001  -0.64751E+001  -0.84524E+001  -0.14572E+001  -0.81771E+000   0.28353E-001
      82  -0.11303E+002  -0.66794E+001  -0.13153E+002  -0.46290E+000   0.66429E+000  -0.13415E+001
      83  -0.14961E+002  -0.68838E+001  -0.17853E+002   0.53140E+000  -0.10019E-009   0.20348E-009
      84  -0.11303E+002  -0.66794E+001  -0.13153E+002  -0.46290E+000  -0.66429E+000   0.13415E+001
      85  -0.76443E+001  -0.64751E+001  -0.84524E+001  -0.14572E+001   0.81771E+000  -0.28353E-001
      86   0.40248E+000   0.55221E+000  -0.79058E+001   0.90174E+000   0.32495E+001   0.25187E+001
      87  -0.38992E+001  -0.22401E+001  -0.10077E+002   0.16299E+001   0.45344E+001   0.23270E+001
      88  -0.82008E+001  -0.50325E+001  -0.12248E+002   0.23580E+001  -0.17784E-010  -0.43086E-010
      89  -0.38992E+001  -0.22401E+001  -0.10077E+002   0.16299E+001  -0.45344E+001  -0.23270E+001
      90   0.40248E+000   0.55221E+000  -0.79058E+001   0.90174E+000  -0.32495E+001  -0.25187E+001
      91  -0.23804E+002   0.50870E+001  -0.95554E+001   0.37081E+001  -0.30709E+001   0.54900E+001
      92  -0.23038E+002   0.47759E+001  -0.12268E+002   0.35163E+001  -0.27917E+001   0.57786E+001
      93  -0.22271E+002   0.44648E+001  -0.14981E+002   0.33245E+001  -0.10927E-010  -0.69870E-010
      94  -0.23038E+002   0.47759E+001  -0.12268E+002   0.35163E+001   0.27917E+001  -0.57786E+001
      95  -0.23804E+002   0.50870E+001  -0.95554E+001   0.37081E+001   0.30709E+001  -0.54900E+001
      96  -0.25459E+002   0.79215E+001  -0.83532E+001   0.35527E+001  -0.16776E+001   0.49523E+001
      97  -0.25037E+002   0.68468E+001  -0.10920E+002   0.29489E+001  -0.19429E+001   0.51868E+001
      98  -0.24616E+002   0.57722E+001  -0.13487E+002   0.23450E+001   0.10758E-010  -0.53943E-010
      99  -0.25037E+002   0.68468E+001  -0.10920E+002   0.29489E+001   0.19429E+001  -0.51868E+001
     100  -0.25459E+002   0.79215E+001  -0.83532E+001   0.35527E+001   0.16776E+001  -0.49523E+001
     101  -0.27655E+002   0.10355E+002  -0.81580E+001   0.33651E+001   0.64437E+000   0.41151E+001
     102  -0.27940E+002   0.91519E+001  -0.10543E+002   0.22288E+001  -0.44772E+000   0.40840E+001
     103  -0.28225E+002   0.79491E+001  -0.12929E+002   0.10926E+001   0.28226E-010  -0.16267E-009
     104  -0.27940E+002   0.91519E+001  -0.10543E+002   0.22288E+001   0.44772E+000  -0.40840E+001
     105  -0.27655E+002   0.10355E+002  -0.81580E+001   0.33651E+001  -0.64437E+000  -0.41151E+001
     106  -0.29165E+002   0.81904E+001  -0.11297E+002  -0.58086E-009  -0.74632E-010   0.41276E+001
     107  -0.30830E+002   0.79074E+001  -0.15280E+002  -0.56331E-009  -0.86696E-010   0.34371E+001
     108  -0.32495E+002   0.76244E+001  -0.19263E+002  -0.25080E-009  -0.54218E-010  -0.13850E-010
     109  -0.30830E+002   0.79074E+001  -0.15280E+002   0.18334E-009  -0.16684E-011  -0.34371E+001
     110  -0.29165E+002   0.81904E+001  -0.11297E+002   0.32253E-009   0.63389E-011  -0.41276E+001
     111  -0.27655E+002   0.10355E+002  -0.81580E+001  -0.33651E+001  -0.64437E+000   0.41151E+001
     112  -0.27940E+002   0.91519E+001  -0.10543E+002  -0.22288E+001   0.44772E+000   0.40840E+001
     113  -0.28225E+002   0.79491E+001  -0.12929E+002  -0.10926E+001   0.30353E-010   0.10581E-009
     114  -0.27940E+002   0.91519E+001  -0.10543E+002  -0.22288E+001  -0.44772E+000  -0.40840E+001
     115  -0.27655E+002   0.10355E+002  -0.81580E+001  -0.33651E+001   0.64437E+000  -0.41151E+001
     116  -0.25459E+002   0.79215E+001  -0.83532E+001  -0.35527E+001   0.16776E+001   0.49523E+001
     117  -0.25037E+002   0.68468E+001  -0.10920E+002  -0.29489E+001   0.19429E+001   0.51868E+001
     118  -0.24616E+002   0.57722E+001  -0.13487E+002  -0.23450E+001  -0.20014E-010  -0.59733E-010
     119  -0.25037E+002   0.68468E+001  -0.10920E+002  -0.29489E+001  -0.19429E+001  -0.51868E+001
     120  -0.25459E+002   0.79215E+001  -0.83532E+001  -0.35527E+001  -0.16776E+001  -0.49523E+001
     121  -0.23804E+002   0.50870E+001  -0.95554E+001  -0.37081E+001   0.30709E+001   0.54900E+001
     122  -0.23038E+002   0.47759E+001  -0.12268E+002  -0.35163E+001   0.27917E+001   0.57786E+001
     123  -0.22271E+002   0.44648E+001  -0.14981E+002  -0.33245E+001  -0.44484E-010  -0.10095E-009
     124  -0.23038E+002   0.47759E+001  -0.12268E+002  -0.35163E+001  -0.27917E+001  -0.57786E+001
     125  -0.23804E+002   0.50870E+001  -0.95554E+001  -0.37081E+001  -0.30709E+001  -0.54900E+001
     126  -0.28682E+002   0.90719E+001  -0.10231E+002   0.28853E+001   0.16099E+001   0.39716E+001
     127  -0.29837E+002   0.86467E+001  -0.13398E+002   0.20495E+001   0.44206E+000   0.35051E+001
     128  -0.30993E+002   0.82215E+001  -0.16564E+002   0.12136E+001  -0.16590E-010  -0.29091E-009
     129  -0.29837E+002   0.86467E+001  -0.13398E+002   0.20495E+001  -0.44206E+000  -0.35051E+001
     130  -0.28682E+002   0.90719E+001  -0.10231E+002   0.28853E+001  -0.16099E+001  -0.39716E+001
     131  -0.28682E+002   0.90719E+001  -0.10231E+002  -0.28853E+001  -0.16099E+001   0.39716E+001
     132  -0.29837E+002   0.86467E+001  -0.13398E+002  -0.20495E+001  -0.44206E+000   0.35051E+001
     133  -0.30993E+002   0.82215E+001  -0.16564E+002  -0.12136E+001   0.25012E-011   0.24846E-009
     134  -0.29837E+002   0.86467E+001  -0.13398E+002  -0.20495E+001   0.44206E+000  -0.35051E+001
     135  -0.28682E+002   0.90719E+001  -0.10231E+002  -0.28853E+001   0.16099E+001  -0.39716E+001
     136  -0.78518E+002   0.14496E+002  -0.75113E+001   0.29928E+001   0.29239E+000   0.22723E+001
     137  -0.74719E+002   0.14958E+002  -0.11020E+002   0.30095E+001  -0.44039E-001   0.13579E+001
     138  -0.70919E+002   0.15419E+002  -0.14529E+002   0.30261E+001   0.16740E-010  -0.19798E-009
     139  -0.74719E+002   0.14958E+002  -0.11020E+002   0.30095E+001   0.44039E-001  -0.13579E+001
     140  -0.78518E+002   0.14496E+002  -0.75113E+001   0.29928E+001  -0.29239E+000  -0.22723E+001
     141  -0.78518E+002   0.14496E+002  -0.75113E+001  -0.29928E+001  -0.29239E+000   0.22723E+001
     142  -0.74719E+002   0.14958E+002  -0.11020E+002  -0.30095E+001   0.44039E-001   0.13579E+001
     143  -0.70919E+002   0.15419E+002  -0.14529E+002  -0.30261E+001   0.48296E-010   0.24553E-009
     144  -0.74719E+002   0.14958E+002  -0.11020E+002  -0.30095E+001  -0.44039E-001  -0.13579E+001
     145  -0.78518E+002   0.14496E+002  -0.75113E+001  -0.29928E+001   0.29239E+000  -0.22723E+001
     146  -0.68388E+002   0.58521E+001  -0.61911E+001   0.25696E+001  -0.63842E+000   0.14408E+001
     147  -0.64177E+002   0.55900E+001  -0.11035E+002   0.26023E+001  -0.83769E+000   0.15435E+001
     148  -0.59965E+002   0.53279E+001  -0.15878E+002   0.26350E+001   0.21091E-010  -0.12694E-009
     149  -0.64177E+002   0.55900E+001  -0.11035E+002   0.26023E+001   0.83769E+000  -0.15435E+001
     150  -0.68388E+002   0.58521E+001  -0.61911E+001   0.25696E+001   0.63842E+000  -0.14408E+001
     151  -0.70482E+002   0.77140E+001  -0.62991E+001   0.20026E+001  -0.71358E+000   0.12698E+001
     152  -0.66273E+002   0.75037E+001  -0.10757E+002   0.20695E+001  -0.84552E+000   0.13411E+001
     153  -0.62064E+002   0.72934E+001  -0.15214E+002   0.21364E+001   0.42200E-010  -0.12352E-009
     154  -0.66273E+002   0.75037E+001  -0.10757E+002   0.20695E+001   0.84552E+000  -0.13411E+001
     155  -0.70482E+002   0.77140E+001  -0.62991E+001   0.20026E+001   0.71358E+000  -0.12698E+001
     156  -0.74648E+002   0.11688E+002  -0.65686E+001   0.22331E+001  -0.35060E+000   0.14971E+001
     157  -0.70547E+002   0.11875E+002  -0.10366E+002   0.22703E+001  -0.56225E+000   0.12041E+001
     158  -0.66446E+002   0.12062E+002  -0.14164E+002   0.23075E+001   0.29474E-010  -0.17978E-009
     159  -0.70547E+002   0.11875E+002  -0.10366E+002   0.22703E+001   0.56225E+000  -0.12041E+001
     160  -0.74648E+002   0.11688E+002  -0.65686E+001   0.22331E+001   0.35060E+000  -0.14971E+001
     161  -0.80316E+002   0.15193E+002  -0.82925E+001  -0.22367E-009  -0.33903E-010   0.26491E+001
     162  -0.76713E+002   0.15584E+002  -0.11787E+002  -0.23911E-009   0.38371E-011   0.14462E+001
     163  -0.73110E+002   0.15974E+002  -0.15281E+002  -0.20176E-010   0.46029E-010   0.74610E-010
     164  -0.76713E+002   0.15584E+002  -0.11787E+002   0.29047E-009   0.43025E-010  -0.14462E+001
     165  -0.80316E+002   0.15193E+002  -0.82925E+001   0.36674E-009   0.35570E-010  -0.26491E+001
     166  -0.74648E+002   0.11688E+002  -0.65686E+001  -0.22331E+001   0.35060E+000   0.14971E+001
     167  -0.70547E+002   0.11875E+002  -0.10366E+002  -0.22703E+001   0.56225E+000   0.12041E+001
     168  -0.66446E+002   0.12062E+002  -0.14164E+002  -0.23075E+001   0.12617E-011   0.37746E-010
     169  -0.70547E+002   0.11875E+002  -0.10366E+002  -0.22703E+001  -0.56225E+000  -0.12041E+001
     170  -0.74648E+002   0.11688E+002  -0.65686E+001  -0.22331E+001  -0.35060E+000  -0.14971E+001
     171  -0.70482E+002   0.77140E+001  -0.62991E+001  -0.20026E+001   0.71358E+000   0.12698E+001
     172  -0.66273E+002   0.75037E+001  -0.10757E+002  -0.20695E+001   0.84552E+000   0.13411E+001
     173  -0.62064E+002   0.72934E+001  -0.15214E+002  -0.21364E+001  -0.47955E-010  -0.14204E-009
     174  -0.66273E+002   0.75037E+001  -0.10757E+002  -0.20695E+001  -0.84552E+000  -0.13411E+001
     175  -0.70482E+002   0.77140E+001  -0.62991E+001  -0.20026E+001  -0.71358E+000  -0.12698E+001
     176  -0.68388E+002   0.58521E+001  -0.61911E+001  -0.25696E+001   0.63842E+000   0.14408E+001
     177  -0.64177E+002   0.55900E+001  -0.11035E+002  -0.26023E+001   0.83769E+000   0.15435E+001
     178  -0.59965E+002   0.53279E+001  -0.15878E+002  -0.26350E+001  -0.56057E-010  -0.17423E-009
     179  -0.64177E+002   0.55900E+001  -0.11035E+002  -0.26023E+001  -0.83769E+000  -0.15435E+001
     180  -0.68388E+002   0.58521E+001  -0.61911E+001  -0.25696E+001  -0.63842E+000  -0.14408E+001
     181  -0.90517E+002   0.56743E+001  -0.98556E+000   0.11049E+000  -0.56757E+000  -0.29011E+001
     182  -0.90971E+002   0.50140E+001  -0.32095E+001   0.13597E+000  -0.65629E+000  -0.22723E+001
     183  -0.91425E+002   0.43537E+001  -0.54335E+001   0.16145E+000   0.91713E-012  -0.10048E-009
     184  -0.90971E+002   0.50140E+001  -0.32095E+001   0.13597E+000   0.65629E+000   0.22723E+001
     185  -0.90517E+002   0.56743E+001  -0.98556E+000   0.11049E+000   0.56757E+000   0.29011E+001
     186  -0.11128E+003   0.14763E+002  -0.42116E+001   0.14037E-009  -0.20333E-010  -0.31685E+001
     187  -0.11064E+003   0.15362E+002  -0.57963E+001   0.87659E-010   0.32246E-010  -0.26915E+001
     188  -0.11000E+003   0.15960E+002  -0.73811E+001   0.69860E-010   0.81309E-010  -0.22589E-010
     189  -0.11064E+003   0.15362E+002  -0.57963E+001   0.12346E-009   0.27648E-010   0.26915E+001
     190  -0.11128E+003   0.14763E+002  -0.42116E+001   0.14214E-009  -0.22498E-010   0.31685E+001
     191  -0.90517E+002   0.56743E+001  -0.98556E+000  -0.11049E+000   0.56757E+000  -0.29011E+001
     192  -0.90971E+002   0.50140E+001  -0.32095E+001  -0.13597E+000   0.65629E+000  -0.22723E+001
     193  -0.91425E+002   0.43537E+001  -0.54335E+001  -0.16145E+000  -0.23945E-010  -0.14582E-009
     194  -0.90971E+002   0.50140E+001  -0.32095E+001  -0.13597E+000  -0.65629E+000   0.22723E+001
     195  -0.90517E+002   0.56743E+001  -0.98556E+000  -0.11049E+000  -0.56757E+000   0.29011E+001
     196  -0.85919E+002   0.38343E+001  -0.59828E+000  -0.12628E+001   0.37604E-001  -0.27410E+001
     197  -0.85942E+002   0.38796E+001  -0.21069E+001  -0.13104E+001  -0.33168E+000  -0.21696E+001
     198  -0.85966E+002   0.39249E+001  -0.36155E+001  -0.13580E+001  -0.32390E-011  -0.65801E-010
     199  -0.85942E+002   0.38796E+001  -0.21069E+001  -0.13104E+001   0.33168E+000   0.21696E+001
     200  -0.85919E+002   0.38343E+001  -0.59828E+000  -0.12628E+001  -0.37604E-001   0.27410E+001
     201  -0.10035E+003   0.99089E+001  -0.19952E+001   0.24152E+001  -0.10019E+001  -0.31177E+001
     202  -0.10097E+003   0.88372E+001  -0.48072E+001   0.24695E+001  -0.83991E+000  -0.24599E+001
     203  -0.10158E+003   0.77655E+001  -0.76192E+001   0.25237E+001   0.10706E-010  -0.15035E-009
     204  -0.10097E+003   0.88372E+001  -0.48072E+001   0.24695E+001   0.83991E+000   0.24599E+001
     205  -0.10035E+003   0.99089E+001  -0.19952E+001   0.24152E+001   0.10019E+001   0.31177E+001
     206  -0.10844E+003   0.13533E+002  -0.34146E+001   0.27074E+001  -0.62537E+000  -0.31714E+001
     207  -0.10829E+003   0.13444E+002  -0.55493E+001   0.27201E+001  -0.52120E+000  -0.26181E+001
     208  -0.10814E+003   0.13355E+002  -0.76840E+001   0.27327E+001   0.52993E-010  -0.10998E-009
     209  -0.10829E+003   0.13444E+002  -0.55493E+001   0.27201E+001   0.52120E+000   0.26181E+001
     210  -0.10844E+003   0.13533E+002  -0.34146E+001   0.27074E+001   0.62537E+000   0.31714E+001
     211  -0.10844E+003   0.13533E+002  -0.34146E+001  -0.27074E+001   0.62537E+000  -0.31714E+001
     212  -0.10829E+003   0.13444E+002  -0.55493E+001  -0.27201E+001   0.52120E+000  -0.26181E+001
     213  -0.10814E+003   0.13355E+002  -0.76840E+001  -0.27327E+001   0.13926E-010  -0.37969E-010
     214  -0.10829E+003   0.13444E+002  -0.55493E+001  -0.27201E+001  -0.52120E+000   0.26181E+001
     215  -0.10844E+003   0.13533E+002  -0.34146E+001  -0.27074E+001  -0.62537E+000   0.31714E+001
     216  -0.10035E+003   0.99089E+001  -0.19952E+001  -0.24152E+001   0.10019E+001  -0.31177E+001
     217  -0.10097E+003   0.88372E+001  -0.48072E+001  -0.24695E+001   0.83991E+000  -0.24599E+001
     218  -0.10158E+003   0.77655E+001  -0.76192E+001  -0.25237E+001  -0.33958E-010  -0.12065E-009
     219  -0.10097E+003   0.88372E+001  -0.48072E+001  -0.24695E+001  -0.83991E+000   0.24599E+001
     220  -0.10035E+003   0.99089E+001  -0.19952E+001  -0.24152E+001  -0.10019E+001   0.31177E+001
     221  -0.85919E+002   0.38343E+001  -0.59828E+000   0.12628E+001  -0.37604E-001  -0.27410E+001
     222  -0.85942E+002   0.38796E+001  -0.21069E+001   0.13104E+001   0.33168E+000  -0.21696E+001
     223  -0.85966E+002   0.39249E+001  -0.36155E+001   0.13580E+001  -0.25091E-010  -0.13552E-009
     224  -0.85942E+002   0.38796E+001  -0.21069E+001   0.13104E+001  -0.33168E+000   0.21696E+001
     225  -0.85919E+002   0.38343E+001  -0.59828E+000   0.12628E+001   0.37604E-001   0.27410E+001
     226  -0.93563E+002   0.29109E+001   0.43898E+001   0.65633E+000  -0.25788E+000  -0.15311E+001
     227  -0.98030E+002   0.19610E+001   0.62032E+001   0.58374E+000  -0.23418E+000  -0.11238E+001
     228  -0.10250E+003   0.10110E+001   0.80166E+001   0.51115E+000  -0.20764E-010  -0.93884E-011
     229  -0.98030E+002   0.19610E+001   0.62032E+001   0.58374E+000   0.23418E+000   0.11238E+001
     230  -0.93563E+002   0.29109E+001   0.43898E+001   0.65633E+000   0.25788E+000   0.15311E+001
     231  -0.97083E+002   0.47371E+001   0.36442E+001   0.22355E+001  -0.30628E+000  -0.15079E+001
     232  -0.10143E+003   0.40124E+001   0.55147E+001   0.21282E+001  -0.30395E+000  -0.10698E+001
     233  -0.10578E+003   0.32877E+001   0.73851E+001   0.20209E+001  -0.13533E-010  -0.42935E-010
     234  -0.10143E+003   0.40124E+001   0.55147E+001   0.21282E+001   0.30395E+000   0.10698E+001
     235  -0.97083E+002   0.47371E+001   0.36442E+001   0.22355E+001   0.30628E+000   0.15079E+001
     236  -0.10187E+003   0.79323E+001   0.25968E+001   0.38501E+001  -0.27502E+000  -0.17248E+001
     237  -0.10609E+003   0.73370E+001   0.45270E+001   0.36309E+001  -0.27756E+000  -0.11629E+001
     238  -0.11032E+003   0.67416E+001   0.64571E+001   0.34116E+001   0.21040E-010  -0.79697E-010
     239  -0.10609E+003   0.73370E+001   0.45270E+001   0.36309E+001   0.27756E+000   0.11629E+001
     240  -0.10187E+003   0.79323E+001   0.25968E+001   0.38501E+001   0.27502E+000   0.17248E+001
     241  -0.10353E+003   0.87354E+001   0.17492E+001   0.26917E+001  -0.16091E+000  -0.21683E+001
     242  -0.10759E+003   0.84457E+001   0.38505E+001   0.24575E+001  -0.14829E+000  -0.14571E+001
     243  -0.11165E+003   0.81561E+001   0.59518E+001   0.22234E+001   0.42928E-010  -0.65247E-010
     244  -0.10759E+003   0.84457E+001   0.38505E+001   0.24575E+001   0.14829E+000   0.14571E+001
     245  -0.10353E+003   0.87354E+001   0.17492E+001   0.26917E+001   0.16091E+000   0.21683E+001
     246  -0.10392E+003   0.81693E+001   0.12034E+001   0.15052E-009   0.15982E-010  -0.23717E+001
     247  -0.10782E+003   0.82814E+001   0.34733E+001   0.10236E-009   0.18192E-010  -0.16041E+001
     248  -0.11173E+003   0.83935E+001   0.57431E+001  -0.17124E-011   0.15255E-010  -0.10363E-009
     249  -0.10782E+003   0.82814E+001   0.34733E+001  -0.36478E-010  -0.13237E-010   0.16041E+001
     250  -0.10392E+003   0.81693E+001   0.12034E+001  -0.15335E-010  -0.36583E-010   0.23717E+001
     251  -0.10353E+003   0.87354E+001   0.17492E+001  -0.26917E+001   0.16091E+000  -0.21683E+001
     252  -0.10759E+003   0.84457E+001   0.38505E+001  -0.24575E+001   0.14829E+000  -0.14571E+001
     253  -0.11165E+003   0.81561E+001   0.59518E+001  -0.22234E+001  -0.17440E-010  -0.16334E-009
     254  -0.10759E+003   0.84457E+001   0.38505E+001  -0.24575E+001  -0.14829E+000   0.14571E+001
     255  -0.10353E+003   0.87354E+001   0.17492E+001  -0.26917E+001  -0.16091E+000   0.21683E+001
     256  -0.10187E+003   0.79323E+001   0.25968E+001  -0.38501E+001   0.27502E+000  -0.17248E+001
     257  -0.10609E+003   0.73370E+001   0.45270E+001  -0.36309E+001   0.27756E+000  -0.11629E+001
     258  -0.11032E+003   0.67416E+001   0.64571E+001  -0.34116E+001  -0.52866E-011  -0.12599E-009
     259  -0.10609E+003   0.73370E+001   0.45270E+001  -0.36309E+001  -0.27756E+000   0.11629E+001
     260  -0.10187E+003   0.79323E+001   0.25968E+001  -0.38501E+001  -0.27502E+000   0.17248E+001
     261  -0.97083E+002   0.47371E+001   0.36442E+001  -0.22355E+001   0.30628E+000  -0.15079E+001
     262  -0.10143E+003   0.40124E+001   0.55147E+001  -0.21282E+001   0.30395E+000  -0.10698E+001
     263  -0.10578E+003   0.32877E+001   0.73851E+001  -0.20209E+001   0.14500E-010  -0.75117E-010
     264  -0.10143E+003   0.40124E+001   0.55147E+001  -0.21282E+001  -0.30395E+000   0.10698E+001
     265  -0.97083E+002   0.47371E+001   0.36442E+001  -0.22355E+001  -0.30628E+000   0.15079E+001
     266  -0.93563E+002   0.29109E+001   0.43898E+001  -0.65633E+000   0.25788E+000  -0.15311E+001
     267  -0.98030E+002   0.19610E+001   0.62032E+001  -0.58374E+000   0.23418E+000  -0.11238E+001
     268  -0.10250E+003   0.10110E+001   0.80166E+001  -0.51115E+000   0.11660E-010  -0.65249E-010
     269  -0.98030E+002   0.19610E+001   0.62032E+001  -0.58374E+000  -0.23418E+000   0.11238E+001
     270  -0.93563E+002   0.29109E+001   0.43898E+001  -0.65633E+000  -0.25788E+000   0.15311E+001
     271  -0.94885E+002  -0.22705E+001   0.41788E+001   0.14975E+001   0.13788E+000   0.10948E+001
     272  -0.96640E+002  -0.23099E+001   0.57228E+001   0.14157E+001   0.14166E+000   0.80101E+000
     273  -0.98394E+002  -0.23493E+001   0.72668E+001   0.13338E+001   0.86073E-011  -0.18255E-010
     274  -0.96640E+002  -0.23099E+001   0.57228E+001   0.14157E+001  -0.14166E+000  -0.80101E+000
     275  -0.94885E+002  -0.22705E+001   0.41788E+001   0.14975E+001  -0.13788E+000  -0.10948E+001
     276  -0.94885E+002  -0.22705E+001   0.41788E+001  -0.14975E+001  -0.13788E+000   0.10948E+001
     277  -0.96640E+002  -0.23099E+001   0.57228E+001  -0.14157E+001  -0.14166E+000   0.80101E+000
     278  -0.98394E+002  -0.23493E+001   0.72668E+001  -0.13338E+001  -0.13233E-010  -0.72728E-010
     279  -0.96640E+002  -0.23099E+001   0.57228E+001  -0.14157E+001   0.14166E+000  -0.80101E+000
     280  -0.94885E+002  -0.22705E+001   0.41788E+001  -0.14975E+001   0.13788E+000  -0.10948E+001
     281  -0.10370E+003   0.99656E-002   0.30633E+001   0.21247E+001  -0.22589E+000   0.10263E+001
     282  -0.10560E+003  -0.62954E+000   0.43726E+001   0.20090E+001  -0.83879E-001   0.83867E+000
     283  -0.10750E+003  -0.12690E+001   0.56818E+001   0.18934E+001   0.77603E-011   0.33069E-010
     284  -0.10560E+003  -0.62954E+000   0.43726E+001   0.20090E+001   0.83879E-001  -0.83867E+000
     285  -0.10370E+003   0.99656E-002   0.30633E+001   0.21247E+001   0.22589E+000  -0.10263E+001
     286  -0.10235E+003   0.40749E+000   0.32689E+001   0.25469E+001  -0.10285E+000   0.10304E+001
     287  -0.10390E+003   0.36844E+000   0.50171E+001   0.23789E+001  -0.35034E-001   0.81348E+000
     288  -0.10546E+003   0.32939E+000   0.67652E+001   0.22110E+001   0.11391E-010   0.15162E-010
     289  -0.10390E+003   0.36844E+000   0.50171E+001   0.23789E+001   0.35034E-001  -0.81348E+000
     290  -0.10235E+003   0.40749E+000   0.32689E+001   0.25469E+001   0.10285E+000  -0.10304E+001
     291  -0.98709E+002  -0.24578E+000   0.36982E+001   0.25936E+001   0.96292E-001   0.10483E+001
     292  -0.10008E+003   0.10870E+000   0.57181E+001   0.24277E+001   0.99480E-001   0.78168E+000
     293  -0.10145E+003   0.46317E+000   0.77380E+001   0.22618E+001   0.17473E-010  -0.79808E-011
     294  -0.10008E+003   0.10870E+000   0.57181E+001   0.24277E+001  -0.99480E-001  -0.78168E+000
     295  -0.98709E+002  -0.24578E+000   0.36982E+001   0.25936E+001  -0.96292E-001  -0.10483E+001
     296  -0.93347E+002  -0.32445E+001   0.44357E+001   0.77955E-010   0.18310E-010   0.11274E+001
     297  -0.95319E+002  -0.34708E+001   0.56709E+001   0.43452E-010   0.11892E-011   0.82693E+000
     298  -0.97291E+002  -0.36971E+001   0.69061E+001  -0.19859E-010  -0.15663E-010  -0.49818E-010
     299  -0.95319E+002  -0.34708E+001   0.56709E+001  -0.34619E-010  -0.71763E-011  -0.82693E+000
     300  -0.93347E+002  -0.32445E+001   0.44357E+001  -0.20570E-010   0.10425E-011  -0.11274E+001
     301  -0.98709E+002  -0.24578E+000   0.36982E+001  -0.25936E+001  -0.96292E-001   0.10483E+001
     302  -0.10008E+003   0.10870E+000   0.57181E+001  -0.24277E+001  -0.99480E-001   0.78168E+000
     303  -0.10145E+003   0.46317E+000   0.77380E+001  -0.22618E+001   0.62269E-011  -0.48758E-010
     304  -0.10008E+003   0.10870E+000   0.57181E+001  -0.24277E+001   0.99480E-001  -0.78168E+000
     305  -0.98709E+002  -0.24578E+000   0.36982E+001  -0.25936E+001   0.96292E-001  -0.10483E+001
     306  -0.10235E+003   0.40749E+000   0.32689E+001  -0.25469E+001   0.10285E+000   0.10304E+001
     307  -0.10390E+003   0.36844E+000   0.50171E+001  -0.23789E+001   0.35034E-001   0.81348E+000
     308  -0.10546E+003   0.32939E+000   0.67652E+001  -0.22110E+001   0.16621E-010  -0.27704E-010
     309  -0.10390E+003   0.36844E+000   0.50171E+001  -0.23789E+001  -0.35034E-001  -0.81348E+000
     310  -0.10235E+003   0.40749E+000   0.32689E+001  -0.25469E+001  -0.10285E+000  -0.10304E+001
     311  -0.10370E+003   0.99656E-002   0.30633E+001  -0.21247E+001   0.22589E+000   0.10263E+001
     312  -0.10560E+003  -0.62954E+000   0.43726E+001  -0.20090E+001   0.83879E-001   0.83867E+000
     313  -0.10750E+003  -0.12690E+001   0.56818E+001  -0.18934E+001   0.22937E-010  -0.27004E-010
     314  -0.10560E+003  -0.62954E+000   0.43726E+001  -0.20090E+001  -0.83879E-001  -0.83867E+000
     315  -0.10370E+003   0.99656E-002   0.30633E+001  -0.21247E+001  -0.22589E+000  -0.10263E+001
     316  -0.86659E+002  -0.35362E+001  -0.16397E+001   0.53391E+000   0.36597E-001   0.65510E+000
     317  -0.85468E+002  -0.27322E+001  -0.91419E+000   0.52781E+000   0.66311E-001   0.48917E+000
     318  -0.84278E+002  -0.19282E+001  -0.18866E+000   0.52170E+000   0.15358E-010   0.35330E-010
     319  -0.85468E+002  -0.27322E+001  -0.91419E+000   0.52781E+000  -0.66311E-001  -0.48917E+000
     320  -0.86659E+002  -0.35362E+001  -0.16397E+001   0.53391E+000  -0.36597E-001  -0.65510E+000
     321  -0.83737E+002  -0.42620E+001  -0.72021E+000   0.40578E+000   0.53914E-001   0.64648E+000
     322  -0.82840E+002  -0.38408E+001  -0.34682E+000   0.38245E+000   0.90918E-001   0.48149E+000
     323  -0.81943E+002  -0.34197E+001   0.26579E-001   0.35912E+000   0.87780E-011   0.26465E-010
     324  -0.82840E+002  -0.38408E+001  -0.34682E+000   0.38245E+000  -0.90918E-001  -0.48149E+000
     325  -0.83737E+002  -0.42620E+001  -0.72021E+000   0.40578E+000  -0.53914E-001  -0.64648E+000
     326  -0.78969E+002  -0.72731E+001   0.31852E+000   0.18023E+000   0.29419E-001   0.66220E+000
     327  -0.78460E+002  -0.72424E+001   0.17454E+000   0.17003E+000   0.66878E-001   0.50272E+000
     328  -0.77950E+002  -0.72116E+001   0.30565E-001   0.15983E+000  -0.28351E-011   0.34132E-011
     329  -0.78460E+002  -0.72424E+001   0.17454E+000   0.17003E+000  -0.66878E-001  -0.50272E+000
     330  -0.78969E+002  -0.72731E+001   0.31852E+000   0.18023E+000  -0.29419E-001  -0.66220E+000
     331  -0.75752E+002  -0.99986E+001   0.87378E+000   0.33999E-001  -0.17345E-001   0.71792E+000
     332  -0.75397E+002  -0.10069E+002   0.45118E+000   0.52852E-001   0.11299E-001   0.56960E+000
     333  -0.75042E+002  -0.10140E+002   0.28585E-001   0.71706E-001  -0.82987E-011  -0.16430E-010
     334  -0.75397E+002  -0.10069E+002   0.45118E+000   0.52852E-001  -0.11299E-001  -0.56960E+000
     335  -0.75752E+002  -0.99986E+001   0.87378E+000   0.33999E-001   0.17345E-001  -0.71792E+000
     336  -0.74381E+002  -0.10439E+002   0.13098E+001   0.31447E-010   0.47675E-011   0.74930E+000
     337  -0.74087E+002  -0.10603E+002   0.77383E+000   0.25674E-010  -0.24306E-011   0.60758E+000
     338  -0.73793E+002  -0.10767E+002   0.23786E+000   0.18993E-010  -0.67865E-011  -0.21787E-010
     339  -0.74087E+002  -0.10603E+002   0.77383E+000   0.18764E-010  -0.20736E-011  -0.60758E+000
     340  -0.74381E+002  -0.10439E+002   0.13098E+001   0.19443E-010  -0.20294E-012  -0.74930E+000
     341  -0.75752E+002  -0.99986E+001   0.87378E+000  -0.33999E-001   0.17345E-001   0.71792E+000
     342  -0.75397E+002  -0.10069E+002   0.45118E+000  -0.52852E-001  -0.11299E-001   0.56960E+000
     343  -0.75042E+002  -0.10140E+002   0.28585E-001  -0.71706E-001   0.50304E-013  -0.16647E-010
     344  -0.75397E+002  -0.10069E+002   0.45118E+000  -0.52852E-001   0.11299E-001  -0.56960E+000
     345  -0.75752E+002  -0.99986E+001   0.87378E+000  -0.33999E-001  -0.17345E-001  -0.71792E+000
     346  -0.78969E+002  -0.72731E+001   0.31852E+000  -0.18023E+000  -0.29419E-001   0.66220E+000
     347  -0.78460E+002  -0.72424E+001   0.17454E+000  -0.17003E+000  -0.66878E-001   0.50272E+000
     348  -0.77950E+002  -0.72116E+001   0.30565E-001  -0.15983E+000   0.24311E-011  -0.93475E-011
     349  -0.78460E+002  -0.72424E+001   0.17454E+000  -0.17003E+000   0.66878E-001  -0.50272E+000
     350  -0.78969E+002  -0.72731E+001   0.31852E+000  -0.18023E+000   0.29419E-001  -0.66220E+000
     351  -0.83737E+002  -0.42620E+001  -0.72021E+000  -0.40578E+000  -0.53914E-001   0.64648E+000
     352  -0.82840E+002  -0.38408E+001  -0.34682E+000  -0.38245E+000  -0.90918E-001   0.48149E+000
     353  -0.81943E+002  -0.34197E+001   0.26579E-001  -0.35912E+000  -0.36430E-012  -0.11352E-010
     354  -0.82840E+002  -0.38408E+001  -0.34682E+000  -0.38245E+000   0.90918E-001  -0.48149E+000
     355  -0.83737E+002  -0.42620E+001  -0.72021E+000  -0.40578E+000   0.53914E-001  -0.64648E+000
     356  -0.86659E+002  -0.35362E+001  -0.16397E+001  -0.53391E+000  -0.36597E-001   0.65510E+000
     357  -0.85468E+002  -0.27322E+001  -0.91419E+000  -0.52781E+000  -0.66311E-001   0.48917E+000
     358  -0.84278E+002  -0.19282E+001  -0.18866E+000  -0.52170E+000  -0.64611E-012  -0.15816E-010
     359  -0.85468E+002  -0.27322E+001  -0.91419E+000  -0.52781E+000   0.66311E-001  -0.48917E+000
     360  -0.86659E+002  -0.35362E+001  -0.16397E+001  -0.53391E+000   0.36597E-001  -0.65510E+000
     361  -0.48133E+002  -0.18534E+001  -0.13217E+001  -0.39469E+000   0.84960E-001  -0.89255E-001
     362  -0.47105E+002  -0.15489E+001  -0.18290E+001  -0.38153E+000   0.27853E-001  -0.13440E+000
     363  -0.46077E+002  -0.12445E+001  -0.23363E+001  -0.36837E+000   0.22095E-011   0.32386E-011
     364  -0.47105E+002  -0.15489E+001  -0.18290E+001  -0.38153E+000  -0.27853E-001   0.13440E+000
     365  -0.48133E+002  -0.18534E+001  -0.13217E+001  -0.39469E+000  -0.84960E-001   0.89255E-001
     366  -0.46989E+002  -0.39328E+001  -0.15434E+001  -0.54598E+000   0.36523E-001  -0.82239E-001
     367  -0.45998E+002  -0.37615E+001  -0.20801E+001  -0.50484E+000   0.65704E-002  -0.10937E+000
     368  -0.45007E+002  -0.35902E+001  -0.26169E+001  -0.46371E+000  -0.15367E-011  -0.74995E-012
     369  -0.45998E+002  -0.37615E+001  -0.20801E+001  -0.50484E+000  -0.65704E-002   0.10937E+000
     370  -0.46989E+002  -0.39328E+001  -0.15434E+001  -0.54598E+000  -0.36523E-001   0.82239E-001
     371  -0.45139E+002  -0.70980E+001  -0.18155E+001  -0.60643E+000  -0.29150E-001  -0.63636E-001
     372  -0.44130E+002  -0.69942E+001  -0.22940E+001  -0.56688E+000  -0.39453E-001  -0.66241E-001
     373  -0.43120E+002  -0.68905E+001  -0.27725E+001  -0.52733E+000  -0.48307E-011  -0.72664E-011
     374  -0.44130E+002  -0.69942E+001  -0.22940E+001  -0.56688E+000   0.39453E-001   0.66241E-001
     375  -0.45139E+002  -0.70980E+001  -0.18155E+001  -0.60643E+000   0.29150E-001   0.63636E-001
     376  -0.44043E+002  -0.94384E+001  -0.21652E+001   0.10545E-010   0.23054E-011  -0.72005E-001
     377  -0.42875E+002  -0.91860E+001  -0.23411E+001   0.10891E-010   0.43008E-012  -0.62086E-001
     378  -0.41708E+002  -0.89336E+001  -0.25171E+001   0.12528E-010  -0.20158E-011  -0.10544E-010
     379  -0.42875E+002  -0.91860E+001  -0.23411E+001   0.12682E-010  -0.48544E-011   0.62086E-001
     380  -0.44043E+002  -0.94384E+001  -0.21652E+001   0.11545E-010  -0.71224E-011   0.72005E-001
     381  -0.45139E+002  -0.70980E+001  -0.18155E+001   0.60643E+000   0.29150E-001  -0.63636E-001
     382  -0.44130E+002  -0.69942E+001  -0.22940E+001   0.56688E+000   0.39453E-001  -0.66241E-001
     383  -0.43120E+002  -0.68905E+001  -0.27725E+001   0.52733E+000   0.24128E-011  -0.24850E-011
     384  -0.44130E+002  -0.69942E+001  -0.22940E+001   0.56688E+000  -0.39453E-001   0.66241E-001
     385  -0.45139E+002  -0.70980E+001  -0.18155E+001   0.60643E+000  -0.29150E-001   0.63636E-001
     386  -0.46989E+002  -0.39328E+001  -0.15434E+001   0.54598E+000  -0.36523E-001  -0.82239E-001
     387  -0.45998E+002  -0.37615E+001  -0.20801E+001   0.50484E+000  -0.65704E-002  -0.10937E+000
     388  -0.45007E+002  -0.35902E+001  -0.26169E+001   0.46371E+000  -0.20845E-011  -0.51829E-011
     389  -0.45998E+002  -0.37615E+001  -0.20801E+001   0.50484E+000   0.65704E-002   0.10937E+000
     390  -0.46989E+002  -0.39328E+001  -0.15434E+001   0.54598E+000   0.36523E-001   0.82239E-001
     391  -0.48133E+002  -0.18534E+001  -0.13217E+001   0.39469E+000  -0.84960E-001  -0.89255E-001
     392  -0.47105E+002  -0.15489E+001  -0.18290E+001   0.38153E+000  -0.27853E-001  -0.13440E+000
     393  -0.46077E+002  -0.12445E+001  -0.23363E+001   0.36837E+000  -0.47908E-011  -0.69438E-011
     394  -0.47105E+002  -0.15489E+001  -0.18290E+001   0.38153E+000   0.27853E-001   0.13440E+000
     395  -0.48133E+002  -0.18534E+001  -0.13217E+001   0.39469E+000   0.84960E-001   0.89255E-001
     396  -0.44239E+002  -0.88110E+001  -0.20155E+001  -0.37601E+000  -0.31387E-001  -0.62027E-001
     397  -0.43122E+002  -0.86002E+001  -0.22989E+001  -0.36928E+000  -0.44019E-001  -0.55114E-001
     398  -0.42006E+002  -0.83894E+001  -0.25823E+001  -0.36254E+000  -0.39990E-011  -0.10716E-010
     399  -0.43122E+002  -0.86002E+001  -0.22989E+001  -0.36928E+000   0.44019E-001   0.55114E-001
     400  -0.44239E+002  -0.88110E+001  -0.20155E+001  -0.37601E+000   0.31387E-001   0.62027E-001
     401  -0.44239E+002  -0.88110E+001  -0.20155E+001   0.37601E+000   0.31387E-001  -0.62027E-001
     402  -0.43122E+002  -0.86002E+001  -0.22989E+001   0.36928E+000   0.44019E-001  -0.55114E-001
     403  -0.42006E+002  -0.83894E+001  -0.25823E+001   0.36254E+000   0.18958E-011  -0.54993E-011
     404  -0.43122E+002  -0.86002E+001  -0.22989E+001   0.36928E+000  -0.44019E-001   0.55114E-001
     405  -0.44239E+002  -0.88110E+001  -0.20155E+001   0.37601E+000  -0.31387E-001   0.62027E-001
     406  -0.17354E+002   0.10913E+000   0.46286E+000  -0.30485E+000   0.59710E-001  -0.18509E+000
     407  -0.17262E+002  -0.26916E+000  -0.52633E+000  -0.28836E+000   0.14547E-001  -0.11120E+000
     408  -0.17169E+002  -0.64745E+000  -0.15155E+001  -0.27187E+000  -0.83059E-012  -0.12534E-011
     409  -0.17262E+002  -0.26916E+000  -0.52633E+000  -0.28836E+000  -0.14547E-001   0.11120E+000
     410  -0.17354E+002   0.10913E+000   0.46286E+000  -0.30485E+000  -0.59710E-001   0.18509E+000
     411  -0.17399E+002  -0.13959E+001  -0.29762E-001  -0.21020E+000  -0.25559E-002  -0.17735E+000
     412  -0.17207E+002  -0.16235E+001  -0.87931E+000  -0.20227E+000  -0.24157E-001  -0.11935E+000
     413  -0.17015E+002  -0.18512E+001  -0.17289E+001  -0.19433E+000  -0.65099E-012  -0.16777E-011
     414  -0.17207E+002  -0.16235E+001  -0.87931E+000  -0.20227E+000   0.24157E-001   0.11935E+000
     415  -0.17399E+002  -0.13959E+001  -0.29762E-001  -0.21020E+000   0.25559E-002   0.17735E+000
     416  -0.17454E+002  -0.30976E+001  -0.52581E+000  -0.14602E+000  -0.44096E-001  -0.17978E+000
     417  -0.17154E+002  -0.32007E+001  -0.12222E+001  -0.14367E+000  -0.43252E-001  -0.14704E+000
     418  -0.16855E+002  -0.33039E+001  -0.19186E+001  -0.14132E+000  -0.22452E-012  -0.20610E-011
     419  -0.17154E+002  -0.32007E+001  -0.12222E+001  -0.14367E+000   0.43252E-001   0.14704E+000
     420  -0.17454E+002  -0.30976E+001  -0.52581E+000  -0.14602E+000   0.44096E-001   0.17978E+000
     421  -0.17639E+002  -0.37452E+001  -0.68815E+000  -0.12514E+000  -0.10213E-001  -0.19413E+000
     422  -0.17331E+002  -0.38787E+001  -0.13623E+001  -0.12096E+000  -0.13102E-001  -0.17583E+000
     423  -0.17024E+002  -0.40122E+001  -0.20365E+001  -0.11678E+000   0.10960E-012  -0.17776E-011
     424  -0.17331E+002  -0.38787E+001  -0.13623E+001  -0.12096E+000   0.13102E-001   0.17583E+000
     425  -0.17639E+002  -0.37452E+001  -0.68815E+000  -0.12514E+000   0.10213E-001   0.19413E+000
     426  -0.17815E+002  -0.41961E+001  -0.84706E+000   0.30157E-011   0.42374E-012  -0.19830E+000
     427  -0.17507E+002  -0.43338E+001  -0.15126E+001   0.20106E-011   0.57405E-012  -0.18510E+000
     428  -0.17199E+002  -0.44715E+001  -0.21781E+001   0.75711E-012   0.44553E-012  -0.18088E-011
     429  -0.17507E+002  -0.43338E+001  -0.15126E+001   0.14671E-011  -0.31815E-012   0.18510E+000
     430  -0.17815E+002  -0.41961E+001  -0.84706E+000   0.24255E-011  -0.80299E-012   0.19830E+000
     431  -0.17639E+002  -0.37452E+001  -0.68815E+000   0.12514E+000   0.10213E-001  -0.19413E+000
     432  -0.17331E+002  -0.38787E+001  -0.13623E+001   0.12096E+000   0.13102E-001  -0.17583E+000
     433  -0.17024E+002  -0.40122E+001  -0.20365E+001   0.11678E+000   0.34284E-012  -0.23046E-011
     434  -0.17331E+002  -0.38787E+001  -0.13623E+001   0.12096E+000  -0.13102E-001   0.17583E+000
     435  -0.17639E+002  -0.37452E+001  -0.68815E+000   0.12514E+000  -0.10213E-001   0.19413E+000
     436  -0.17454E+002  -0.30976E+001  -0.52581E+000   0.14602E+000   0.44096E-001  -0.17978E+000
     437  -0.17154E+002  -0.32007E+001  -0.12222E+001   0.14367E+000   0.43252E-001  -0.14704E+000
     438  -0.16855E+002  -0.33039E+001  -0.19186E+001   0.14132E+000  -0.36405E-012  -0.22664E-011
     439  -0.17154E+002  -0.32007E+001  -0.12222E+001   0.14367E+000  -0.43252E-001   0.14704E+000
     440  -0.17454E+002  -0.30976E+001  -0.52581E+000   0.14602E+000  -0.44096E-001   0.17978E+000
     441  -0.17399E+002  -0.13959E+001  -0.29762E-001   0.21020E+000   0.25559E-002  -0.17735E+000
     442  -0.17207E+002  -0.16235E+001  -0.87931E+000   0.20227E+000   0.24157E-001  -0.11935E+000
     443  -0.17015E+002  -0.18512E+001  -0.17289E+001   0.19433E+000  -0.42036E-012  -0.15819E-011
     444  -0.17207E+002  -0.16235E+001  -0.87931E+000   0.20227E+000  -0.24157E-001   0.11935E+000
     445  -0.17399E+002  -0.13959E+001  -0.29762E-001   0.21020E+000  -0.25559E-002   0.17735E+000
     446  -0.17354E+002   0.10913E+000   0.46286E+000   0.30485E+000  -0.59710E-001  -0.18509E+000
     447  -0.17262E+002  -0.26916E+000  -0.52633E+000   0.28836E+000  -0.14547E-001  -0.11120E+000
     448  -0.17169E+002  -0.64745E+000  -0.15155E+001   0.27187E+000  -0.12117E-012  -0.11578E-011
     449  -0.17262E+002  -0.26916E+000  -0.52633E+000   0.28836E+000   0.14547E-001   0.11120E+000
     450  -0.17354E+002   0.10913E+000   0.46286E+000   0.30485E+000   0.59710E-001   0.18509E+000
     451  -0.73495E+001  -0.49548E+000  -0.23298E-001  -0.10768E+000  -0.19733E-001  -0.79523E-001
     452  -0.70778E+001  -0.46342E+000  -0.22798E+000  -0.76182E-001  -0.10388E-001   0.21165E-001
     453  -0.68060E+001  -0.43136E+000  -0.43267E+000  -0.44684E-001   0.35653E-012  -0.15728E-012
     454  -0.70778E+001  -0.46342E+000  -0.22798E+000  -0.76182E-001   0.10388E-001  -0.21165E-001
     455  -0.73495E+001  -0.49548E+000  -0.23298E-001  -0.10768E+000   0.19733E-001   0.79523E-001
     456  -0.72283E+001  -0.58832E+000   0.15104E+000   0.13232E+000  -0.30016E-001  -0.72392E-001
     457  -0.70327E+001  -0.62149E+000  -0.18045E+000   0.13502E+000  -0.10112E-001   0.47115E-002
     458  -0.68371E+001  -0.65465E+000  -0.51195E+000   0.13771E+000   0.19503E-012  -0.24413E-013
     459  -0.70327E+001  -0.62149E+000  -0.18045E+000   0.13502E+000   0.10112E-001  -0.47115E-002
     460  -0.72283E+001  -0.58832E+000   0.15104E+000   0.13232E+000   0.30016E-001   0.72392E-001
     461  -0.59290E+001  -0.95542E+000   0.79716E-002   0.21295E+000  -0.11526E-001  -0.78182E-001
     462  -0.58520E+001  -0.10522E+001  -0.38610E+000   0.20747E+000   0.73548E-003  -0.38595E-001
     463  -0.57750E+001  -0.11490E+001  -0.78018E+000   0.20199E+000   0.15547E-013  -0.15555E-012
     464  -0.58520E+001  -0.10522E+001  -0.38610E+000   0.20747E+000  -0.73548E-003   0.38595E-001
     465  -0.59290E+001  -0.95542E+000   0.79716E-002   0.21295E+000   0.11526E-001   0.78182E-001
     466  -0.53012E+001  -0.11087E+001  -0.10394E+000   0.60408E-001  -0.35449E-002  -0.90913E-001
     467  -0.52577E+001  -0.12201E+001  -0.49665E+000   0.64623E-001   0.11752E-002  -0.56152E-001
     468  -0.52142E+001  -0.13314E+001  -0.88935E+000   0.68838E-001  -0.51299E-013  -0.50760E-012
     469  -0.52577E+001  -0.12201E+001  -0.49665E+000   0.64623E-001  -0.11752E-002   0.56152E-001
     470  -0.53012E+001  -0.11087E+001  -0.10394E+000   0.60408E-001   0.35449E-002   0.90913E-001
     471  -0.52624E+001  -0.11248E+001  -0.57157E-001   0.64806E-012  -0.22396E-013  -0.97184E-001
     472  -0.52312E+001  -0.12515E+001  -0.48060E+000   0.41564E-012  -0.52148E-013  -0.60283E-001
     473  -0.52000E+001  -0.13783E+001  -0.90404E+000  -0.14485E-013  -0.73188E-013  -0.92850E-012
     474  -0.52312E+001  -0.12515E+001  -0.48060E+000  -0.25087E-012   0.66518E-013   0.60283E-001
     475  -0.52624E+001  -0.11248E+001  -0.57157E-001  -0.28955E-012   0.19751E-012   0.97184E-001
     476  -0.53012E+001  -0.11087E+001  -0.10394E+000  -0.60408E-001   0.35449E-002  -0.90913E-001
     477  -0.52577E+001  -0.12201E+001  -0.49665E+000  -0.64623E-001  -0.11752E-002  -0.56152E-001
     478  -0.52142E+001  -0.13314E+001  -0.88935E+000  -0.68838E-001  -0.49080E-014  -0.12603E-011
     479  -0.52577E+001  -0.12201E+001  -0.49665E+000  -0.64623E-001   0.11752E-002   0.56152E-001
     480  -0.53012E+001  -0.11087E+001  -0.10394E+000  -0.60408E-001  -0.35449E-002   0.90913E-001
     481  -0.59290E+001  -0.95542E+000   0.79716E-002  -0.21295E+000   0.11526E-001  -0.78182E-001
     482  -0.58520E+001  -0.10522E+001  -0.38610E+000  -0.20747E+000  -0.73548E-003  -0.38595E-001
     483  -0.57750E+001  -0.11490E+001  -0.78018E+000  -0.20199E+000  -0.48751E-013  -0.13155E-011
     484  -0.58520E+001  -0.10522E+001  -0.38610E+000  -0.20747E+000   0.73548E-003   0.38595E-001
     485  -0.59290E+001  -0.95542E+000   0.79716E-002  -0.21295E+000  -0.11526E-001   0.78182E-001
     486  -0.72283E+001  -0.58832E+000   0.15104E+000  -0.13232E+000   0.30016E-001  -0.72392E-001
     487  -0.70327E+001  -0.62149E+000  -0.18045E+000  -0.13502E+000   0.10112E-001   0.47115E-002
     488  -0.68371E+001  -0.65465E+000  -0.51195E+000  -0.13771E+000   0.32250E-013  -0.32373E-012
     489  -0.70327E+001  -0.62149E+000  -0.18045E+000  -0.13502E+000  -0.10112E-001  -0.47115E-002
     490  -0.72283E+001  -0.58832E+000   0.15104E+000  -0.13232E+000  -0.30016E-001   0.72392E-001
     491  -0.73495E+001  -0.49548E+000  -0.23298E-001   0.10768E+000   0.19733E-001  -0.79523E-001
     492  -0.70778E+001  -0.46342E+000  -0.22798E+000   0.76182E-001   0.10388E-001   0.21165E-001
     493  -0.68060E+001  -0.43136E+000  -0.43267E+000   0.44684E-001   0.26557E-012   0.51656E-012
     494  -0.70778E+001  -0.46342E+000  -0.22798E+000   0.76182E-001  -0.10388E-001  -0.21165E-001
     495  -0.73495E+001  -0.49548E+000  -0.23298E-001   0.10768E+000  -0.19733E-001   0.79523E-001
     496  -0.13753E+001  -0.29498E+000  -0.16895E+000   0.42537E-001   0.27429E-002  -0.28206E-001
     497  -0.13205E+001  -0.28153E+000  -0.18450E+000   0.41996E-001   0.13992E-002  -0.19873E-001
     498  -0.12658E+001  -0.26808E+000  -0.20004E+000   0.41456E-001  -0.36121E-013  -0.10161E-012
     499  -0.13205E+001  -0.28153E+000  -0.18450E+000   0.41996E-001  -0.13992E-002   0.19873E-001
     500  -0.13753E+001  -0.29498E+000  -0.16895E+000   0.42537E-001  -0.27429E-002   0.28206E-001
     501  -0.12885E+001  -0.30794E+000  -0.15145E+000   0.23384E-013  -0.13482E-014  -0.28157E-001
     502  -0.12339E+001  -0.29417E+000  -0.16622E+000  -0.37360E-013  -0.51764E-013  -0.19569E-001
     503  -0.11793E+001  -0.28039E+000  -0.18099E+000  -0.13255E-012  -0.74054E-013  -0.15641E-012
     504  -0.12339E+001  -0.29417E+000  -0.16622E+000  -0.16317E-012  -0.37923E-013   0.19569E-001
     505  -0.12885E+001  -0.30794E+000  -0.15145E+000  -0.15935E-012  -0.29919E-013   0.28157E-001
     506  -0.13753E+001  -0.29498E+000  -0.16895E+000  -0.42537E-001  -0.27429E-002  -0.28206E-001
     507  -0.13205E+001  -0.28153E+000  -0.18450E+000  -0.41996E-001  -0.13992E-002  -0.19873E-001
     508  -0.12658E+001  -0.26808E+000  -0.20004E+000  -0.41456E-001  -0.10396E-014  -0.17287E-012
     509  -0.13205E+001  -0.28153E+000  -0.18450E+000  -0.41996E-001   0.13992E-002   0.19873E-001
     510  -0.13753E+001  -0.29498E+000  -0.16895E+000  -0.42537E-001   0.27429E-002   0.28206E-001
     511  -0.14621E+001  -0.28202E+000  -0.18646E+000   0.86482E-001   0.94623E-002  -0.28255E-001
     512  -0.14072E+001  -0.26889E+000  -0.20278E+000   0.85291E-001   0.52963E-002  -0.20177E-001
     513  -0.13524E+001  -0.25576E+000  -0.21909E+000   0.84100E-001   0.10262E-013  -0.78894E-013
     514  -0.14072E+001  -0.26889E+000  -0.20278E+000   0.85291E-001  -0.52963E-002   0.20177E-001
     515  -0.14621E+001  -0.28202E+000  -0.18646E+000   0.86482E-001  -0.94623E-002   0.28255E-001
     516  -0.14621E+001  -0.28202E+000  -0.18646E+000  -0.86482E-001  -0.94623E-002  -0.28255E-001
     517  -0.14072E+001  -0.26889E+000  -0.20278E+000  -0.85291E-001  -0.52963E-002  -0.20177E-001
     518  -0.13524E+001  -0.25576E+000  -0.21909E+000  -0.84100E-001   0.63525E-013  -0.15724E-012
     519  -0.14072E+001  -0.26889E+000  -0.20278E+000  -0.85291E-001   0.52963E-002   0.20177E-001
     520  -0.14621E+001  -0.28202E+000  -0.18646E+000  -0.86482E-001   0.94623E-002   0.28255E-001
     521  -0.22173E+000  -0.71596E-002  -0.67400E-002  -0.46048E-002   0.12535E-002  -0.62749E-002
     522  -0.21979E+000  -0.97556E-002  -0.16948E-001  -0.50479E-002   0.27955E-003  -0.66449E-002
     523  -0.21785E+000  -0.12352E-001  -0.27157E-001  -0.54909E-002  -0.11654E-013   0.11889E-013
     524  -0.21979E+000  -0.97556E-002  -0.16948E-001  -0.50479E-002  -0.27955E-003   0.66449E-002
     525  -0.22173E+000  -0.71596E-002  -0.67400E-002  -0.46048E-002  -0.12535E-002   0.62749E-002
     526  -0.19923E+000   0.51476E-001   0.22083E-001  -0.14507E-001   0.18216E-002  -0.72236E-002
     527  -0.19920E+000   0.46129E-001   0.79898E-002  -0.14919E-001   0.59589E-003  -0.69732E-002
     528  -0.19917E+000   0.40782E-001  -0.61037E-002  -0.15330E-001  -0.22595E-013   0.96909E-014
     529  -0.19920E+000   0.46129E-001   0.79898E-002  -0.14919E-001  -0.59589E-003   0.69732E-002
     530  -0.19923E+000   0.51476E-001   0.22083E-001  -0.14507E-001  -0.18216E-002   0.72236E-002
     531  -0.24424E+000  -0.65796E-001  -0.35563E-001  -0.15501E-013  -0.10110E-013  -0.53262E-002
     532  -0.24038E+000  -0.65640E-001  -0.41887E-001  -0.17496E-013  -0.33026E-014  -0.63165E-002
     533  -0.23652E+000  -0.65485E-001  -0.48210E-001  -0.23219E-013   0.38455E-014   0.11342E-013
     534  -0.24038E+000  -0.65640E-001  -0.41887E-001  -0.26377E-013  -0.41781E-014   0.63165E-002
     535  -0.24424E+000  -0.65796E-001  -0.35563E-001  -0.25807E-013  -0.12543E-013   0.53262E-002
     536  -0.22173E+000  -0.71596E-002  -0.67400E-002   0.46048E-002  -0.12535E-002  -0.62749E-002
     537  -0.21979E+000  -0.97556E-002  -0.16948E-001   0.50479E-002  -0.27955E-003  -0.66449E-002
     538  -0.21785E+000  -0.12352E-001  -0.27157E-001   0.54909E-002   0.21336E-014   0.57143E-014
     539  -0.21979E+000  -0.97556E-002  -0.16948E-001   0.50479E-002   0.27955E-003   0.66449E-002
     540  -0.22173E+000  -0.71596E-002  -0.67400E-002   0.46048E-002   0.12535E-002   0.62749E-002
     541  -0.19923E+000   0.51476E-001   0.22083E-001   0.14507E-001  -0.18216E-002  -0.72236E-002
     542  -0.19920E+000   0.46129E-001   0.79898E-002   0.14919E-001  -0.59589E-003  -0.69732E-002
     543  -0.19917E+000   0.40782E-001  -0.61037E-002   0.15330E-001  -0.41366E-014   0.28327E-014
     544  -0.19920E+000   0.46129E-001   0.79898E-002   0.14919E-001   0.59589E-003   0.69732E-002
     545  -0.19923E+000   0.51476E-001   0.22083E-001   0.14507E-001   0.18216E-002   0.72236E-002
     546  -0.34551E-001  -0.28043E-002   0.29470E-002  -0.12645E-002  -0.10965E-003  -0.70185E-003
     547  -0.35576E-001  -0.56013E-002  -0.40336E-002  -0.89661E-003   0.20138E-003   0.16663E-003
     548  -0.36600E-001  -0.83982E-002  -0.11014E-001  -0.52868E-003   0.33747E-014  -0.28553E-015
     549  -0.35576E-001  -0.56013E-002  -0.40336E-002  -0.89661E-003  -0.20138E-003  -0.16663E-003
     550  -0.34551E-001  -0.28043E-002   0.29470E-002  -0.12645E-002   0.10965E-003   0.70185E-003
     551  -0.31259E-001   0.50646E-004   0.63983E-002  -0.13445E-002  -0.15860E-003  -0.68054E-003
     552  -0.32807E-001  -0.32169E-002  -0.18504E-002  -0.11494E-002   0.10961E-003   0.20183E-003
     553  -0.34355E-001  -0.64844E-002  -0.10099E-001  -0.95423E-003   0.15974E-014   0.42265E-015
     554  -0.32807E-001  -0.32169E-002  -0.18504E-002  -0.11494E-002  -0.10961E-003  -0.20183E-003
     555  -0.31259E-001   0.50646E-004   0.63983E-002  -0.13445E-002   0.15860E-003   0.68054E-003
     556  -0.27966E-001   0.29056E-002   0.98497E-002   0.61292E-014   0.78498E-015  -0.65923E-003
     557  -0.30039E-001  -0.83250E-003   0.33281E-003   0.66804E-014  -0.18462E-015   0.23703E-003
     558  -0.32111E-001  -0.45706E-002  -0.91841E-002   0.49746E-014  -0.88270E-015  -0.11916E-014
     559  -0.30039E-001  -0.83250E-003   0.33281E-003   0.24130E-014   0.80831E-016  -0.23703E-003
     560  -0.27966E-001   0.29056E-002   0.98497E-002   0.21081E-014   0.77285E-015   0.65923E-003
     561  -0.31259E-001   0.50646E-004   0.63983E-002   0.13445E-002   0.15860E-003  -0.68054E-003
     562  -0.32807E-001  -0.32169E-002  -0.18504E-002   0.11494E-002  -0.10961E-003   0.20183E-003
     563  -0.34355E-001  -0.64844E-002  -0.10099E-001   0.95423E-003  -0.19661E-015  -0.49442E-014
     564  -0.32807E-001  -0.32169E-002  -0.18504E-002   0.11494E-002   0.10961E-003  -0.20183E-003
     565  -0.31259E-001   0.50646E-004   0.63983E-002   0.13445E-002  -0.15860E-003   0.68054E-003
     566  -0.34551E-001  -0.28043E-002   0.29470E-002   0.12645E-002   0.10965E-003  -0.70185E-003
     567  -0.35576E-001  -0.56013E-002  -0.40336E-002   0.89661E-003  -0.20138E-003   0.16663E-003
     568  -0.36600E-001  -0.83982E-002  -0.11014E-001   0.52868E-003   0.11921E-014  -0.63744E-014
     569  -0.35576E-001  -0.56013E-002  -0.40336E-002   0.89661E-003   0.20138E-003  -0.16663E-003
     570  -0.34551E-001  -0.28043E-002   0.29470E-002   0.12645E-002  -0.10965E-003   0.70185E-003
     571  -0.44128E-002  -0.43444E-003  -0.21059E-002  -0.78183E-015  -0.96591E-016  -0.21044E-003
     572  -0.34884E-002   0.21950E-003  -0.62520E-003  -0.65729E-015   0.70330E-016  -0.16207E-003
     573  -0.25641E-002   0.87344E-003   0.85548E-003  -0.34743E-015   0.23520E-016   0.12115E-015
     574  -0.34884E-002   0.21950E-003  -0.62520E-003  -0.34293E-015  -0.15276E-015   0.16207E-003
     575  -0.44128E-002  -0.43444E-003  -0.21059E-002  -0.52382E-015  -0.11532E-015   0.21044E-003
     576  -0.69409E-002  -0.53961E-002  -0.50934E-002  -0.90624E-004  -0.24719E-003  -0.31153E-004
     577  -0.55591E-002  -0.38382E-002  -0.27940E-002  -0.15510E-003  -0.18296E-003  -0.13413E-003
     578  -0.41774E-002  -0.22804E-002  -0.49450E-003  -0.21957E-003  -0.33639E-016   0.16706E-015
     579  -0.55591E-002  -0.38382E-002  -0.27940E-002  -0.15510E-003   0.18296E-003   0.13413E-003
     580  -0.69409E-002  -0.53961E-002  -0.50934E-002  -0.90624E-004   0.24719E-003   0.31153E-004
     581  -0.56768E-002  -0.29153E-002  -0.35996E-002  -0.22235E-003  -0.16749E-003  -0.12080E-003
     582  -0.45238E-002  -0.18094E-002  -0.17096E-002  -0.22414E-003  -0.96314E-004  -0.14810E-003
     583  -0.33707E-002  -0.70347E-003   0.18049E-003  -0.22593E-003  -0.94459E-016   0.61888E-016
     584  -0.45238E-002  -0.18094E-002  -0.17096E-002  -0.22414E-003   0.96314E-004   0.14810E-003
     585  -0.56768E-002  -0.29153E-002  -0.35996E-002  -0.22235E-003   0.16749E-003   0.12080E-003
     586  -0.56768E-002  -0.29153E-002  -0.35996E-002   0.22235E-003   0.16749E-003  -0.12080E-003
     587  -0.45238E-002  -0.18094E-002  -0.17096E-002   0.22414E-003   0.96314E-004  -0.14810E-003
     588  -0.33707E-002  -0.70347E-003   0.18049E-003   0.22593E-003   0.13385E-015   0.19957E-015
     589  -0.45238E-002  -0.18094E-002  -0.17096E-002   0.22414E-003  -0.96314E-004   0.14810E-003
     590  -0.56768E-002  -0.29153E-002  -0.35996E-002   0.22235E-003  -0.16749E-003   0.12080E-003
     591  -0.69409E-002  -0.53961E-002  -0.50934E-002   0.90624E-004   0.24719E-003  -0.31153E-004
     592  -0.55591E-002  -0.38382E-002  -0.27940E-002   0.15510E-003   0.18296E-003  -0.13413E-003
     593  -0.41774E-002  -0.22804E-002  -0.49450E-003   0.21957E-003   0.65379E-016   0.11357E-015
     594  -0.55591E-002  -0.38382E-002  -0.27940E-002   0.15510E-003  -0.18296E-003   0.13413E-003
     595  -0.69409E-002  -0.53961E-002  -0.50934E-002   0.90624E-004  -0.24719E-003   0.31153E-004
     596   0.54153E-003   0.13370E-002   0.10032E-002   0.34266E-004   0.70738E-004  -0.12162E-004
     597   0.22612E-003   0.99790E-003   0.56316E-003   0.25403E-004   0.28525E-004  -0.42740E-004
     598  -0.89296E-004   0.65877E-003   0.12309E-003   0.16541E-004  -0.19300E-016   0.28362E-016
     599   0.22612E-003   0.99790E-003   0.56316E-003   0.25403E-004  -0.28525E-004   0.42740E-004
     600   0.54153E-003   0.13370E-002   0.10032E-002   0.34266E-004  -0.70738E-004   0.12162E-004
     601   0.44456E-004   0.43294E-003   0.38916E-003   0.20469E-004   0.47103E-004  -0.21897E-005
     602  -0.15824E-003   0.26525E-003   0.15505E-003   0.10875E-004   0.87574E-005  -0.45440E-004
     603  -0.36093E-003   0.97555E-004  -0.79046E-004   0.12813E-005  -0.54726E-016   0.33900E-016
     604  -0.15824E-003   0.26525E-003   0.15505E-003   0.10875E-004  -0.87574E-005   0.45440E-004
     605   0.44456E-004   0.43294E-003   0.38916E-003   0.20469E-004  -0.47103E-004   0.21897E-005
     606  -0.45262E-003  -0.47116E-003  -0.22492E-003   0.85056E-016   0.19712E-016   0.77823E-005
     607  -0.54259E-003  -0.46741E-003  -0.25305E-003   0.91737E-016  -0.22629E-016  -0.48140E-004
     608  -0.63256E-003  -0.46366E-003  -0.28119E-003   0.91969E-016  -0.46329E-016   0.31337E-016
     609  -0.54259E-003  -0.46741E-003  -0.25305E-003   0.83833E-016  -0.26507E-016   0.48140E-004
     610  -0.45262E-003  -0.47116E-003  -0.22492E-003   0.82142E-016  -0.25325E-016  -0.77823E-005
     611   0.44456E-004   0.43294E-003   0.38916E-003  -0.20469E-004  -0.47103E-004  -0.21897E-005
     612  -0.15824E-003   0.26525E-003   0.15505E-003  -0.10875E-004  -0.87574E-005  -0.45440E-004
     613  -0.36093E-003   0.97555E-004  -0.79046E-004  -0.12813E-005   0.11665E-016   0.45621E-016
     614  -0.15824E-003   0.26525E-003   0.15505E-003  -0.10875E-004   0.87574E-005   0.45440E-004
     615   0.44456E-004   0.43294E-003   0.38916E-003  -0.20469E-004   0.47103E-004   0.21897E-005
     616   0.54153E-003   0.13370E-002   0.10032E-002  -0.34266E-004  -0.70738E-004  -0.12162E-004
     617   0.22612E-003   0.99790E-003   0.56316E-003  -0.25403E-004  -0.28525E-004  -0.42740E-004
     618  -0.89296E-004   0.65877E-003   0.12309E-003  -0.16541E-004   0.25839E-016   0.68003E-016
     619   0.22612E-003   0.99790E-003   0.56316E-003  -0.25403E-004   0.28525E-004   0.42740E-004
     620   0.54153E-003   0.13370E-002   0.10032E-002  -0.34266E-004   0.70738E-004   0.12162E-004
     621  -0.74130E-004   0.82627E-004   0.12694E-003  -0.18811E-004   0.42832E-005  -0.10593E-004
     622  -0.76381E-004   0.46581E-004   0.35170E-004  -0.12399E-004   0.62734E-005   0.17812E-004
     623  -0.78631E-004   0.10534E-004  -0.56600E-004  -0.59877E-005  -0.13687E-016  -0.66577E-018
     624  -0.76381E-004   0.46581E-004   0.35170E-004  -0.12399E-004  -0.62734E-005  -0.17812E-004
     625  -0.74130E-004   0.82627E-004   0.12694E-003  -0.18811E-004  -0.42832E-005   0.10593E-004
     626  -0.34413E-004   0.63742E-004   0.14089E-003   0.14010E-004   0.23518E-005  -0.58626E-005
     627  -0.44589E-004   0.25136E-004   0.39758E-004   0.15126E-004   0.42509E-005   0.18260E-004
     628  -0.54764E-004  -0.13471E-004  -0.61372E-004   0.16241E-004  -0.11600E-016  -0.40107E-017
     629  -0.44589E-004   0.25136E-004   0.39758E-004   0.15126E-004  -0.42509E-005  -0.18260E-004
     630  -0.34413E-004   0.63742E-004   0.14089E-003   0.14010E-004  -0.23518E-005   0.58626E-005
     631   0.53038E-005   0.44858E-004   0.15483E-003   0.16466E-016   0.13572E-017  -0.11325E-005
     632  -0.12797E-004   0.36910E-005   0.44345E-004   0.10463E-016  -0.71998E-017   0.18707E-004
     633  -0.30898E-004  -0.37476E-004  -0.66144E-004  -0.13760E-017  -0.12037E-016  -0.13974E-016
     634  -0.12797E-004   0.36910E-005   0.44345E-004  -0.35292E-017  -0.91962E-017  -0.18707E-004
     635   0.53038E-005   0.44858E-004   0.15483E-003   0.15247E-018  -0.10074E-016   0.11325E-005
     636  -0.34413E-004   0.63742E-004   0.14089E-003  -0.14010E-004  -0.23518E-005  -0.58626E-005
     637  -0.44589E-004   0.25136E-004   0.39758E-004  -0.15126E-004  -0.42509E-005   0.18260E-004
     638  -0.54764E-004  -0.13471E-004  -0.61372E-004  -0.16241E-004  -0.25727E-017  -0.28893E-016
     639  -0.44589E-004   0.25136E-004   0.39758E-004  -0.15126E-004   0.42509E-005  -0.18260E-004
     640  -0.34413E-004   0.63742E-004   0.14089E-003  -0.14010E-004   0.23518E-005   0.58626E-005
     641  -0.74130E-004   0.82627E-004   0.12694E-003   0.18811E-004  -0.42832E-005  -0.10593E-004
     642  -0.76381E-004   0.46581E-004   0.35170E-004   0.12399E-004  -0.62734E-005   0.17812E-004
     643  -0.78631E-004   0.10534E-004  -0.56600E-004   0.59877E-005   0.94156E-017  -0.37191E-016
     644  -0.76381E-004   0.46581E-004   0.35170E-004   0.12399E-004   0.62734E-005  -0.17812E-004
     645  -0.74130E-004   0.82627E-004   0.12694E-003   0.18811E-004   0.42832E-005   0.10593E-004
     646  -0.79945E-005   0.12385E-004  -0.39002E-004  -0.54735E-017   0.11908E-017  -0.14529E-005
     647   0.27632E-005   0.23891E-004  -0.31133E-005  -0.33337E-017   0.23550E-017  -0.44838E-005
     648   0.13521E-004   0.35396E-004   0.32776E-004  -0.12137E-017   0.24326E-018   0.40642E-017
     649   0.27632E-005   0.23891E-004  -0.31133E-005  -0.31289E-017  -0.23270E-017   0.44838E-005
     650  -0.79945E-005   0.12385E-004  -0.39002E-004  -0.50259E-017  -0.16218E-017   0.14529E-005
     651  -0.54453E-004  -0.12679E-003  -0.12049E-003   0.32263E-005  -0.67795E-005   0.28604E-005
     652  -0.30261E-004  -0.88421E-004  -0.57032E-004   0.16371E-005  -0.41650E-005  -0.47712E-005
     653  -0.60676E-005  -0.50055E-004   0.64252E-005   0.47918E-007   0.10881E-017   0.32572E-017
     654  -0.30261E-004  -0.88421E-004  -0.57032E-004   0.16371E-005   0.41650E-005   0.47712E-005
     655  -0.54453E-004  -0.12679E-003  -0.12049E-003   0.32263E-005   0.67795E-005  -0.28604E-005
     656  -0.31224E-004  -0.57201E-004  -0.79745E-004  -0.70886E-005  -0.42165E-005   0.70377E-006
     657  -0.13749E-004  -0.32265E-004  -0.30073E-004  -0.67895E-005  -0.18773E-005  -0.46275E-005
     658   0.37267E-005  -0.73292E-005   0.19600E-004  -0.64903E-005   0.22425E-018   0.36001E-017
     659  -0.13749E-004  -0.32265E-004  -0.30073E-004  -0.67895E-005   0.18773E-005   0.46275E-005
     660  -0.31224E-004  -0.57201E-004  -0.79745E-004  -0.70886E-005   0.42165E-005  -0.70377E-006
     661  -0.31224E-004  -0.57201E-004  -0.79745E-004   0.70886E-005   0.42165E-005   0.70377E-006
     662  -0.13749E-004  -0.32265E-004  -0.30073E-004   0.67895E-005   0.18773E-005  -0.46275E-005
     663   0.37267E-005  -0.73292E-005   0.19600E-004   0.64903E-005   0.18720E-017   0.48466E-017
     664  -0.13749E-004  -0.32265E-004  -0.30073E-004   0.67895E-005  -0.18773E-005   0.46275E-005
     665  -0.31224E-004  -0.57201E-004  -0.79745E-004   0.70886E-005  -0.42165E-005  -0.70377E-006
     666  -0.54453E-004  -0.12679E-003  -0.12049E-003  -0.32263E-005   0.67795E-005   0.28604E-005
     667  -0.30261E-004  -0.88421E-004  -0.57032E-004  -0.16371E-005   0.41650E-005  -0.47712E-005
     668  -0.60676E-005  -0.50055E-004   0.64252E-005  -0.47918E-007   0.26178E-017   0.55073E-017
     669  -0.30261E-004  -0.88421E-004  -0.57032E-004  -0.16371E-005  -0.41650E-005   0.47712E-005
     670  -0.54453E-004  -0.12679E-003  -0.12049E-003  -0.32263E-005  -0.67795E-005  -0.28604E-005
     671  -0.22580E-006  -0.55475E-005   0.47914E-005   0.39260E-018   0.37583E-018   0.52542E-006
     672  -0.26727E-005  -0.72019E-005  -0.11953E-005   0.27554E-018  -0.46350E-019   0.43013E-006
     673  -0.51196E-005  -0.88563E-005  -0.71819E-005   0.15535E-018   0.13091E-018  -0.29348E-018
     674  -0.26727E-005  -0.72019E-005  -0.11953E-005   0.18531E-018   0.64659E-019  -0.43013E-006
     675  -0.22580E-006  -0.55475E-005   0.47914E-005   0.21819E-018  -0.60100E-018  -0.52542E-006
     676   0.17001E-004   0.32553E-004   0.29439E-004  -0.82463E-007   0.17429E-005  -0.22878E-006
     677   0.96766E-005   0.22624E-004   0.14500E-004   0.10350E-006   0.91957E-006   0.51122E-006
     678   0.23524E-005   0.12696E-004  -0.43967E-006   0.28946E-006   0.27259E-018  -0.41219E-018
     679   0.96766E-005   0.22624E-004   0.14500E-004   0.10350E-006  -0.91957E-006  -0.51122E-006
     680   0.17001E-004   0.32553E-004   0.29439E-004  -0.82463E-007  -0.17429E-005   0.22878E-006
     681   0.83875E-005   0.13503E-004   0.17115E-004   0.11964E-005   0.10736E-005   0.14832E-006
     682   0.35019E-005   0.77113E-005   0.66523E-005   0.10971E-005   0.32696E-006   0.47067E-006
     683  -0.13836E-005   0.19197E-005  -0.38108E-005   0.99778E-006   0.82390E-019  -0.31504E-018
     684   0.35019E-005   0.77113E-005   0.66523E-005   0.10971E-005  -0.32696E-006  -0.47067E-006
     685   0.83875E-005   0.13503E-004   0.17115E-004   0.11964E-005  -0.10736E-005  -0.14832E-006
     686   0.83875E-005   0.13503E-004   0.17115E-004  -0.11964E-005  -0.10736E-005   0.14832E-006
     687   0.35019E-005   0.77113E-005   0.66523E-005  -0.10971E-005  -0.32696E-006   0.47067E-006
     688  -0.13836E-005   0.19197E-005  -0.38108E-005  -0.99778E-006   0.17643E-018  -0.35896E-018
     689   0.35019E-005   0.77113E-005   0.66523E-005  -0.10971E-005   0.32696E-006  -0.47067E-006
     690   0.83875E-005   0.13503E-004   0.17115E-004  -0.11964E-005   0.10736E-005  -0.14832E-006
     691   0.17001E-004   0.32553E-004   0.29439E-004   0.82463E-007  -0.17429E-005  -0.22878E-006
     692   0.96766E-005   0.22624E-004   0.14500E-004  -0.10350E-006  -0.91957E-006   0.51122E-006
     693   0.23524E-005   0.12696E-004  -0.43967E-006  -0.28946E-006  -0.16759E-019  -0.34882E-018
     694   0.96766E-005   0.22624E-004   0.14500E-004  -0.10350E-006   0.91957E-006  -0.51122E-006
     695   0.17001E-004   0.32553E-004   0.29439E-004   0.82463E-007   0.17429E-005   0.22878E-006
     696  -0.23200E-005  -0.26650E-005  -0.22229E-005  -0.13945E-006  -0.13499E-006  -0.10485E-006
     697  -0.14151E-005  -0.17986E-005  -0.11817E-005  -0.12659E-006  -0.55219E-007   0.73572E-007
     698  -0.51016E-006  -0.93223E-006  -0.14060E-006  -0.11373E-006   0.10297E-018  -0.40605E-019
     699  -0.14151E-005  -0.17986E-005  -0.11817E-005  -0.12659E-006   0.55219E-007  -0.73572E-007
     700  -0.23200E-005  -0.26650E-005  -0.22229E-005  -0.13945E-006   0.13499E-006   0.10485E-006
     701  -0.11338E-005  -0.97848E-006  -0.94871E-006  -0.43394E-008  -0.83360E-007  -0.11489E-006
     702  -0.55180E-006  -0.54938E-006  -0.40175E-006  -0.34505E-009  -0.57796E-008   0.69799E-007
     703   0.30172E-007  -0.12029E-006   0.14521E-006   0.36493E-008   0.14255E-018   0.77027E-020
     704  -0.55180E-006  -0.54938E-006  -0.40175E-006  -0.34505E-009   0.57796E-008  -0.69799E-007
     705  -0.11338E-005  -0.97848E-006  -0.94871E-006  -0.43394E-008   0.83360E-007   0.11489E-006
     706   0.52489E-007   0.70807E-006   0.32544E-006  -0.24432E-019   0.83482E-019  -0.12494E-006
     707   0.31150E-006   0.69986E-006   0.37824E-006  -0.79978E-019   0.84058E-019   0.66025E-007
     708   0.57051E-006   0.69166E-006   0.43103E-006  -0.83717E-019   0.35119E-019   0.10537E-018
     709   0.31150E-006   0.69986E-006   0.37824E-006   0.49829E-020  -0.20908E-019  -0.66025E-007
     710   0.52489E-007   0.70807E-006   0.32544E-006   0.41849E-019  -0.27416E-019   0.12494E-006
     711  -0.11338E-005  -0.97848E-006  -0.94871E-006   0.43394E-008   0.83360E-007  -0.11489E-006
     712  -0.55180E-006  -0.54938E-006  -0.40175E-006   0.34505E-009   0.57796E-008   0.69799E-007
     713   0.30172E-007  -0.12029E-006   0.14521E-006  -0.36493E-008  -0.74672E-019   0.88561E-019
     714  -0.55180E-006  -0.54938E-006  -0.40175E-006   0.34505E-009  -0.57796E-008  -0.69799E-007
     715  -0.11338E-005  -0.97848E-006  -0.94871E-006   0.43394E-008  -0.83360E-007   0.11489E-006
     716  -0.23200E-005  -0.26650E-005  -0.22229E-005   0.13945E-006   0.13499E-006  -0.10485E-006
     717  -0.14151E-005  -0.17986E-005  -0.11817E-005   0.12659E-006   0.55219E-007   0.73572E-007
     718  -0.51016E-006  -0.93223E-006  -0.14060E-006   0.11373E-006  -0.37463E-019   0.22340E-019
     719  -0.14151E-005  -0.17986E-005  -0.11817E-005   0.12659E-006  -0.55219E-007  -0.73572E-007
     720  -0.23200E-005  -0.26650E-005  -0.22229E-005   0.13945E-006  -0.13499E-006   0.10485E-006
     721  -0.14207E-006  -0.12206E-005  -0.12278E-005   0.13758E-006  -0.70527E-007   0.13769E-006
     722  -0.48095E-007  -0.86744E-006  -0.55298E-006   0.96915E-007  -0.44197E-007  -0.16359E-006
     723   0.45879E-007  -0.51429E-006   0.12185E-006   0.56255E-007   0.52658E-020  -0.37031E-019
     724  -0.48095E-007  -0.86744E-006  -0.55298E-006   0.96915E-007   0.44197E-007   0.16359E-006
     725  -0.14207E-006  -0.12206E-005  -0.12278E-005   0.13758E-006   0.70527E-007  -0.13769E-006
     726  -0.88143E-007  -0.57930E-006  -0.90588E-006  -0.18219E-006  -0.41805E-007   0.91732E-007
     727  -0.22236E-007  -0.33918E-006  -0.34009E-006  -0.16641E-006  -0.21496E-007  -0.14904E-006
     728   0.43670E-007  -0.99072E-007   0.22570E-006  -0.15063E-006  -0.28780E-019  -0.13791E-019
     729  -0.22236E-007  -0.33918E-006  -0.34009E-006  -0.16641E-006   0.21496E-007   0.14904E-006
     730  -0.88143E-007  -0.57930E-006  -0.90588E-006  -0.18219E-006   0.41805E-007  -0.91732E-007
     731  -0.34218E-007   0.62002E-007  -0.58396E-006  -0.11297E-018   0.30937E-019   0.45775E-007
     732   0.36220E-008   0.18907E-006  -0.12721E-006  -0.64877E-019   0.59495E-020  -0.13450E-006
     733   0.41462E-007   0.31614E-006   0.32954E-006  -0.12507E-019  -0.31877E-019   0.12917E-019
     734   0.36220E-008   0.18907E-006  -0.12721E-006  -0.30533E-019  -0.22374E-019   0.13450E-006
     735  -0.34218E-007   0.62002E-007  -0.58396E-006  -0.52834E-019  -0.33087E-022  -0.45775E-007
     736  -0.88143E-007  -0.57930E-006  -0.90588E-006   0.18219E-006   0.41805E-007   0.91732E-007
     737  -0.22236E-007  -0.33918E-006  -0.34009E-006   0.16641E-006   0.21496E-007  -0.14904E-006
     738   0.43670E-007  -0.99072E-007   0.22570E-006   0.15063E-006   0.38853E-020   0.58220E-019
     739  -0.22236E-007  -0.33918E-006  -0.34009E-006   0.16641E-006  -0.21496E-007   0.14904E-006
     740  -0.88143E-007  -0.57930E-006  -0.90588E-006   0.18219E-006  -0.41805E-007  -0.91732E-007
     741  -0.14207E-006  -0.12206E-005  -0.12278E-005  -0.13758E-006   0.70527E-007   0.13769E-006
     742  -0.48095E-007  -0.86744E-006  -0.55298E-006  -0.96915E-007   0.44197E-007  -0.16359E-006
     743   0.45879E-007  -0.51429E-006   0.12185E-006  -0.56255E-007   0.86986E-020   0.10006E-018
     744  -0.48095E-007  -0.86744E-006  -0.55298E-006  -0.96915E-007  -0.44197E-007   0.16359E-006
     745  -0.14207E-006  -0.12206E-005  -0.12278E-005  -0.13758E-006  -0.70527E-007  -0.13769E-006
