    NODE   SXX         SYY         SZZ         SXY         SYZ         SZX  
       1  -0.96524E+002   0.24015E+001  -0.46153E+001  -0.24679E+001  -0.35542E+001   0.67595E+000
       2  -0.10416E+003  -0.16186E+001  -0.97650E+001  -0.34116E+001  -0.14274E+001   0.34760E+001
       3  -0.11180E+003  -0.56387E+001  -0.14915E+002  -0.43554E+001   0.17012E-010  -0.96147E-010
       4  -0.10416E+003  -0.16186E+001  -0.97650E+001  -0.34116E+001   0.14274E+001  -0.34760E+001
       5  -0.96524E+002   0.24015E+001  -0.46153E+001  -0.24679E+001   0.35542E+001  -0.67595E+000
       6  -0.10249E+003   0.24230E+001  -0.63771E+001   0.16664E+001   0.40406E+000  -0.44197E+000
       7  -0.11145E+003  -0.28480E+001  -0.11878E+002   0.10745E+001   0.18479E+001   0.27146E+001
       8  -0.12041E+003  -0.81189E+001  -0.17379E+002   0.48261E+000  -0.58017E-011  -0.94432E-010
       9  -0.11145E+003  -0.28480E+001  -0.11878E+002   0.10745E+001  -0.18479E+001  -0.27146E+001
      10  -0.10249E+003   0.24230E+001  -0.63771E+001   0.16664E+001  -0.40406E+000   0.44197E+000
      11  -0.11279E+003   0.61028E+001  -0.10956E+002   0.31749E+001   0.47737E+001  -0.14909E+001
      12  -0.12406E+003  -0.24184E+000  -0.18203E+002   0.31032E+001   0.50281E+001   0.21756E+001
      13  -0.13533E+003  -0.65864E+001  -0.25451E+002   0.30315E+001  -0.36098E-010  -0.75685E-010
      14  -0.12406E+003  -0.24184E+000  -0.18203E+002   0.31032E+001  -0.50281E+001  -0.21756E+001
      15  -0.11279E+003   0.61028E+001  -0.10956E+002   0.31749E+001  -0.47737E+001   0.14909E+001
      16  -0.11985E+003   0.12677E+002  -0.16909E+002  -0.63826E+000   0.34688E+001  -0.11655E+001
      17  -0.13281E+003   0.52160E+001  -0.25913E+002  -0.51611E+000   0.32321E+001   0.25983E+001
      18  -0.14576E+003  -0.22453E+001  -0.34917E+002  -0.39396E+000  -0.13366E-010  -0.25132E-010
      19  -0.13281E+003   0.52160E+001  -0.25913E+002  -0.51611E+000  -0.32321E+001  -0.25983E+001
      20  -0.11985E+003   0.12677E+002  -0.16909E+002  -0.63826E+000  -0.34688E+001   0.11655E+001
      21  -0.12259E+003   0.15594E+002  -0.20045E+002   0.52359E-010  -0.49746E-011  -0.90909E+000
      22  -0.13623E+003   0.68383E+001  -0.29410E+002  -0.17971E-010   0.13251E-010   0.27987E+001
      23  -0.14988E+003  -0.19169E+001  -0.38775E+002  -0.11089E-009   0.28081E-010  -0.14919E-011
      24  -0.13623E+003   0.68383E+001  -0.29410E+002  -0.12851E-009   0.15963E-010  -0.27987E+001
      25  -0.12259E+003   0.15594E+002  -0.20045E+002  -0.12354E-009   0.72411E-011   0.90909E+000
      26  -0.11985E+003   0.12677E+002  -0.16909E+002   0.63826E+000  -0.34688E+001  -0.11655E+001
      27  -0.13281E+003   0.52160E+001  -0.25913E+002   0.51611E+000  -0.32321E+001   0.25983E+001
      28  -0.14576E+003  -0.22453E+001  -0.34917E+002   0.39396E+000   0.62757E-010  -0.66493E-011
      29  -0.13281E+003   0.52160E+001  -0.25913E+002   0.51611E+000   0.32321E+001  -0.25983E+001
      30  -0.11985E+003   0.12677E+002  -0.16909E+002   0.63826E+000   0.34688E+001   0.11655E+001
      31  -0.11279E+003   0.61028E+001  -0.10956E+002  -0.31749E+001  -0.47737E+001  -0.14909E+001
      32  -0.12406E+003  -0.24184E+000  -0.18203E+002  -0.31032E+001  -0.50281E+001   0.21756E+001
      33  -0.13533E+003  -0.65864E+001  -0.25451E+002  -0.30315E+001   0.59460E-010   0.15332E-010
      34  -0.12406E+003  -0.24184E+000  -0.18203E+002  -0.31032E+001   0.50281E+001  -0.21756E+001
      35  -0.11279E+003   0.61028E+001  -0.10956E+002  -0.31749E+001   0.47737E+001   0.14909E+001
      36  -0.10249E+003   0.24230E+001  -0.63771E+001  -0.16664E+001  -0.40406E+000  -0.44197E+000
      37  -0.11145E+003  -0.28480E+001  -0.11878E+002  -0.10745E+001  -0.18479E+001   0.27146E+001
      38  -0.12041E+003  -0.81189E+001  -0.17379E+002  -0.48261E+000   0.31149E-010   0.16246E-010
      39  -0.11145E+003  -0.28480E+001  -0.11878E+002  -0.10745E+001   0.18479E+001  -0.27146E+001
      40  -0.10249E+003   0.24230E+001  -0.63771E+001  -0.16664E+001   0.40406E+000   0.44197E+000
      41  -0.96524E+002   0.24015E+001  -0.46153E+001   0.24679E+001   0.35542E+001   0.67595E+000
      42  -0.10416E+003  -0.16186E+001  -0.97650E+001   0.34116E+001   0.14274E+001   0.34760E+001
      43  -0.11180E+003  -0.56387E+001  -0.14915E+002   0.43554E+001   0.29580E-010  -0.95479E-013
      44  -0.10416E+003  -0.16186E+001  -0.97650E+001   0.34116E+001  -0.14274E+001  -0.34760E+001
      45  -0.96524E+002   0.24015E+001  -0.46153E+001   0.24679E+001  -0.35542E+001  -0.67595E+000
      46  -0.98838E+002   0.52881E+001   0.25204E+000   0.58998E+000  -0.21137E+001   0.51270E+001
      47  -0.10322E+003   0.23555E+001  -0.18406E+001  -0.13366E+000  -0.89199E+000   0.62127E+001
      48  -0.10760E+003  -0.57720E+000  -0.39333E+001  -0.85730E+000   0.22922E-010  -0.10453E-009
      49  -0.10322E+003   0.23555E+001  -0.18406E+001  -0.13366E+000   0.89199E+000  -0.62127E+001
      50  -0.98838E+002   0.52881E+001   0.25204E+000   0.58998E+000   0.21137E+001  -0.51270E+001
      51  -0.10464E+003   0.89297E+001  -0.30968E+001   0.36055E+001   0.32966E+001   0.38043E+001
      52  -0.10955E+003   0.66639E+001  -0.40971E+001   0.36992E+001   0.34771E+001   0.56148E+001
      53  -0.11447E+003   0.43980E+001  -0.50974E+001   0.37929E+001  -0.31824E-011  -0.56003E-010
      54  -0.10955E+003   0.66639E+001  -0.40971E+001   0.36992E+001  -0.34771E+001  -0.56148E+001
      55  -0.10464E+003   0.89297E+001  -0.30968E+001   0.36055E+001  -0.32966E+001  -0.38043E+001
      56  -0.10464E+003   0.89297E+001  -0.30968E+001  -0.36055E+001  -0.32966E+001   0.38043E+001
      57  -0.10955E+003   0.66639E+001  -0.40971E+001  -0.36992E+001  -0.34771E+001   0.56148E+001
      58  -0.11447E+003   0.43980E+001  -0.50974E+001  -0.37929E+001   0.36481E-010   0.10291E-010
      59  -0.10955E+003   0.66639E+001  -0.40971E+001  -0.36992E+001   0.34771E+001  -0.56148E+001
      60  -0.10464E+003   0.89297E+001  -0.30968E+001  -0.36055E+001   0.32966E+001  -0.38043E+001
      61  -0.98838E+002   0.52881E+001   0.25204E+000  -0.58998E+000   0.21137E+001   0.51270E+001
      62  -0.10322E+003   0.23555E+001  -0.18406E+001   0.13366E+000   0.89199E+000   0.62127E+001
      63  -0.10760E+003  -0.57720E+000  -0.39333E+001   0.85730E+000   0.29562E-010  -0.21458E-010
      64  -0.10322E+003   0.23555E+001  -0.18406E+001   0.13366E+000  -0.89199E+000  -0.62127E+001
      65  -0.98838E+002   0.52881E+001   0.25204E+000  -0.58998E+000  -0.21137E+001  -0.51270E+001
      66  -0.10146E+003   0.61345E+001  -0.68245E+000   0.33171E+001   0.37422E+000   0.42720E+001
      67  -0.10590E+003   0.34660E+001  -0.18798E+001   0.29378E+001   0.12180E+001   0.56697E+001
      68  -0.11034E+003   0.79742E+000  -0.30772E+001   0.25585E+001   0.95944E-011  -0.10034E-009
      69  -0.10590E+003   0.34660E+001  -0.18798E+001   0.29378E+001  -0.12180E+001  -0.56697E+001
      70  -0.10146E+003   0.61345E+001  -0.68245E+000   0.33171E+001  -0.37422E+000  -0.42720E+001
      71  -0.10633E+003   0.11562E+002  -0.67689E+001  -0.58292E-001   0.25261E+001   0.46672E+001
      72  -0.11216E+003   0.84377E+001  -0.89130E+001   0.14114E+000   0.24128E+001   0.65003E+001
      73  -0.11799E+003   0.53131E+001  -0.11057E+002   0.34058E+000  -0.36654E-012  -0.26712E-011
      74  -0.11216E+003   0.84377E+001  -0.89130E+001   0.14114E+000  -0.24128E+001  -0.65003E+001
      75  -0.10633E+003   0.11562E+002  -0.67689E+001  -0.58292E-001  -0.25261E+001  -0.46672E+001
      76  -0.10746E+003   0.12246E+002  -0.89612E+001   0.17052E-010  -0.15761E-010   0.51427E+001
      77  -0.11380E+003   0.81241E+001  -0.11551E+002  -0.22408E-010  -0.93990E-011   0.68976E+001
      78  -0.12014E+003   0.40022E+001  -0.14140E+002  -0.81128E-010  -0.30202E-011  -0.31652E-011
      79  -0.11380E+003   0.81241E+001  -0.11551E+002  -0.90747E-010  -0.50624E-011  -0.68976E+001
      80  -0.10746E+003   0.12246E+002  -0.89612E+001  -0.81105E-010  -0.71213E-011  -0.51427E+001
      81  -0.10633E+003   0.11562E+002  -0.67689E+001   0.58292E-001  -0.25261E+001   0.46672E+001
      82  -0.11216E+003   0.84377E+001  -0.89130E+001  -0.14114E+000  -0.24128E+001   0.65003E+001
      83  -0.11799E+003   0.53131E+001  -0.11057E+002  -0.34058E+000   0.19615E-010  -0.12894E-010
      84  -0.11216E+003   0.84377E+001  -0.89130E+001  -0.14114E+000   0.24128E+001  -0.65003E+001
      85  -0.10633E+003   0.11562E+002  -0.67689E+001   0.58292E-001   0.25261E+001  -0.46672E+001
      86  -0.10146E+003   0.61345E+001  -0.68245E+000  -0.33171E+001  -0.37422E+000   0.42720E+001
      87  -0.10590E+003   0.34660E+001  -0.18798E+001  -0.29378E+001  -0.12180E+001   0.56697E+001
      88  -0.11034E+003   0.79742E+000  -0.30772E+001  -0.25585E+001   0.27677E-010   0.40301E-011
      89  -0.10590E+003   0.34660E+001  -0.18798E+001  -0.29378E+001   0.12180E+001  -0.56697E+001
      90  -0.10146E+003   0.61345E+001  -0.68245E+000  -0.33171E+001   0.37422E+000  -0.42720E+001
      91  -0.10905E+003   0.48917E+001   0.40390E+001   0.13591E+001   0.16130E+000   0.59512E+001
      92  -0.11004E+003   0.27638E+001   0.30617E+001   0.11325E+001   0.13210E+000   0.54340E+001
      93  -0.11104E+003   0.63587E+000   0.20844E+001   0.90596E+000   0.13148E-010  -0.94430E-010
      94  -0.11004E+003   0.27638E+001   0.30617E+001   0.11325E+001  -0.13210E+000  -0.54340E+001
      95  -0.10905E+003   0.48917E+001   0.40390E+001   0.13591E+001  -0.16130E+000  -0.59512E+001
      96  -0.10782E+003   0.39759E+001   0.35663E+001   0.15121E+001   0.47358E+000   0.55382E+001
      97  -0.10803E+003   0.32258E+001   0.41858E+001   0.14240E+001   0.46734E+000   0.51400E+001
      98  -0.10824E+003   0.24757E+001   0.48054E+001   0.13359E+001   0.14572E-010  -0.84519E-010
      99  -0.10803E+003   0.32258E+001   0.41858E+001   0.14240E+001  -0.46734E+000  -0.51400E+001
     100  -0.10782E+003   0.39759E+001   0.35663E+001   0.15121E+001  -0.47358E+000  -0.55382E+001
     101  -0.10307E+003   0.24877E+001   0.35078E+001   0.75315E+000   0.97546E+000   0.54595E+001
     102  -0.10240E+003   0.31574E+001   0.57998E+001   0.90830E+000   0.10284E+001   0.52304E+001
     103  -0.10173E+003   0.38271E+001   0.80918E+001   0.10635E+001   0.18443E-010  -0.31234E-010
     104  -0.10240E+003   0.31574E+001   0.57998E+001   0.90830E+000  -0.10284E+001  -0.52304E+001
     105  -0.10307E+003   0.24877E+001   0.35078E+001   0.75315E+000  -0.97546E+000  -0.54595E+001
     106  -0.97410E+002  -0.13276E+001   0.32137E+001  -0.45657E-010  -0.19985E-010   0.66177E+001
     107  -0.97064E+002  -0.14690E+001   0.47123E+001  -0.43349E-010  -0.20791E-010   0.63814E+001
     108  -0.96717E+002  -0.16105E+001   0.62109E+001  -0.42706E-010  -0.16649E-010   0.18492E-010
     109  -0.97064E+002  -0.14690E+001   0.47123E+001  -0.26966E-010  -0.96500E-011  -0.63814E+001
     110  -0.97410E+002  -0.13276E+001   0.32137E+001  -0.95588E-011  -0.75984E-011  -0.66177E+001
     111  -0.10307E+003   0.24877E+001   0.35078E+001  -0.75315E+000  -0.97546E+000   0.54595E+001
     112  -0.10240E+003   0.31574E+001   0.57998E+001  -0.90830E+000  -0.10284E+001   0.52304E+001
     113  -0.10173E+003   0.38271E+001   0.80918E+001  -0.10635E+001   0.46560E-011   0.36017E-010
     114  -0.10240E+003   0.31574E+001   0.57998E+001  -0.90830E+000   0.10284E+001  -0.52304E+001
     115  -0.10307E+003   0.24877E+001   0.35078E+001  -0.75315E+000   0.97546E+000  -0.54595E+001
     116  -0.10782E+003   0.39759E+001   0.35663E+001  -0.15121E+001  -0.47358E+000   0.55382E+001
     117  -0.10803E+003   0.32258E+001   0.41858E+001  -0.14240E+001  -0.46734E+000   0.51400E+001
     118  -0.10824E+003   0.24757E+001   0.48054E+001  -0.13359E+001   0.91133E-011   0.20601E-010
     119  -0.10803E+003   0.32258E+001   0.41858E+001  -0.14240E+001   0.46734E+000  -0.51400E+001
     120  -0.10782E+003   0.39759E+001   0.35663E+001  -0.15121E+001   0.47358E+000  -0.55382E+001
     121  -0.10905E+003   0.48917E+001   0.40390E+001  -0.13591E+001  -0.16130E+000   0.59512E+001
     122  -0.11004E+003   0.27638E+001   0.30617E+001  -0.11325E+001  -0.13210E+000   0.54340E+001
     123  -0.11104E+003   0.63587E+000   0.20844E+001  -0.90596E+000   0.11090E-010  -0.64777E-011
     124  -0.11004E+003   0.27638E+001   0.30617E+001  -0.11325E+001   0.13210E+000  -0.54340E+001
     125  -0.10905E+003   0.48917E+001   0.40390E+001  -0.13591E+001   0.16130E+000  -0.59512E+001
     126  -0.98480E+002   0.29393E+000   0.35679E+001  -0.45223E+000   0.80927E+000   0.62058E+001
     127  -0.97925E+002   0.57904E+000   0.55010E+001  -0.25018E+000   0.87139E+000   0.59981E+001
     128  -0.97370E+002   0.86414E+000   0.74341E+001  -0.48126E-001   0.58239E-011   0.16376E-010
     129  -0.97925E+002   0.57904E+000   0.55010E+001  -0.25018E+000  -0.87139E+000  -0.59981E+001
     130  -0.98480E+002   0.29393E+000   0.35679E+001  -0.45223E+000  -0.80927E+000  -0.62058E+001
     131  -0.98480E+002   0.29393E+000   0.35679E+001   0.45223E+000  -0.80927E+000   0.62058E+001
     132  -0.97925E+002   0.57904E+000   0.55010E+001   0.25018E+000  -0.87139E+000   0.59981E+001
     133  -0.97370E+002   0.86414E+000   0.74341E+001   0.48126E-001  -0.10941E-010   0.20362E-010
     134  -0.97925E+002   0.57904E+000   0.55010E+001   0.25018E+000   0.87139E+000  -0.59981E+001
     135  -0.98480E+002   0.29393E+000   0.35679E+001   0.45223E+000   0.80927E+000  -0.62058E+001
     136  -0.86041E+002  -0.11834E+002   0.13543E+001  -0.15518E+001  -0.46238E-001   0.88952E+000
     137  -0.85640E+002  -0.12656E+002  -0.10020E+001  -0.14643E+001   0.24458E-001   0.72959E+000
     138  -0.85240E+002  -0.13478E+002  -0.33583E+001  -0.13768E+001   0.30089E-011   0.10967E-010
     139  -0.85640E+002  -0.12656E+002  -0.10020E+001  -0.14643E+001  -0.24458E-001  -0.72959E+000
     140  -0.86041E+002  -0.11834E+002   0.13543E+001  -0.15518E+001   0.46238E-001  -0.88952E+000
     141  -0.86041E+002  -0.11834E+002   0.13543E+001   0.15518E+001   0.46238E-001   0.88952E+000
     142  -0.85640E+002  -0.12656E+002  -0.10020E+001   0.14643E+001  -0.24458E-001   0.72959E+000
     143  -0.85240E+002  -0.13478E+002  -0.33583E+001   0.13768E+001   0.26047E-011   0.43514E-010
     144  -0.85640E+002  -0.12656E+002  -0.10020E+001   0.14643E+001   0.24458E-001  -0.72959E+000
     145  -0.86041E+002  -0.11834E+002   0.13543E+001   0.15518E+001  -0.46238E-001  -0.88952E+000
     146  -0.94890E+002  -0.89341E+000   0.42508E+000  -0.12363E+001   0.53802E+000   0.10650E+001
     147  -0.94407E+002  -0.19645E+001  -0.22474E+001  -0.10818E+001   0.35565E+000   0.91345E+000
     148  -0.93924E+002  -0.30356E+001  -0.49200E+001  -0.92724E+000  -0.82552E-013  -0.41914E-010
     149  -0.94407E+002  -0.19645E+001  -0.22474E+001  -0.10818E+001  -0.35565E+000  -0.91345E+000
     150  -0.94890E+002  -0.89341E+000   0.42508E+000  -0.12363E+001  -0.53802E+000  -0.10650E+001
     151  -0.92839E+002  -0.40235E+001   0.28156E+000  -0.21165E+001   0.33548E+000   0.98950E+000
     152  -0.92360E+002  -0.49407E+001  -0.21504E+001  -0.20227E+001   0.21957E+000   0.79482E+000
     153  -0.91882E+002  -0.58579E+001  -0.45823E+001  -0.19289E+001   0.35797E-011  -0.34656E-010
     154  -0.92360E+002  -0.49407E+001  -0.21504E+001  -0.20227E+001  -0.21957E+000  -0.79482E+000
     155  -0.92839E+002  -0.40235E+001   0.28156E+000  -0.21165E+001  -0.33548E+000  -0.98950E+000
     156  -0.88907E+002  -0.90915E+001   0.51002E+000  -0.26465E+001   0.41986E-001   0.88766E+000
     157  -0.88452E+002  -0.98501E+001  -0.16775E+001  -0.25691E+001   0.56134E-001   0.66903E+000
     158  -0.87997E+002  -0.10609E+002  -0.38649E+001  -0.24916E+001   0.54925E-011  -0.13474E-010
     159  -0.88452E+002  -0.98501E+001  -0.16775E+001  -0.25691E+001  -0.56134E-001  -0.66903E+000
     160  -0.88907E+002  -0.90915E+001   0.51002E+000  -0.26465E+001  -0.41986E-001  -0.88766E+000
     161  -0.85054E+002  -0.12639E+002   0.18267E+001  -0.44520E-010  -0.47153E-011   0.91770E+000
     162  -0.84690E+002  -0.13529E+002  -0.70235E+000  -0.35505E-010  -0.13934E-011   0.79731E+000
     163  -0.84326E+002  -0.14418E+002  -0.32314E+001  -0.16129E-010   0.40401E-011   0.32024E-010
     164  -0.84690E+002  -0.13529E+002  -0.70235E+000   0.42318E-011   0.52387E-011  -0.79731E+000
     165  -0.85054E+002  -0.12639E+002   0.18267E+001   0.14232E-010   0.43256E-011  -0.91770E+000
     166  -0.88907E+002  -0.90915E+001   0.51002E+000   0.26465E+001  -0.41986E-001   0.88766E+000
     167  -0.88452E+002  -0.98501E+001  -0.16775E+001   0.25691E+001  -0.56134E-001   0.66903E+000
     168  -0.87997E+002  -0.10609E+002  -0.38649E+001   0.24916E+001  -0.24859E-011   0.44993E-010
     169  -0.88452E+002  -0.98501E+001  -0.16775E+001   0.25691E+001   0.56134E-001  -0.66903E+000
     170  -0.88907E+002  -0.90915E+001   0.51002E+000   0.26465E+001   0.41986E-001  -0.88766E+000
     171  -0.92839E+002  -0.40235E+001   0.28156E+000   0.21165E+001  -0.33548E+000   0.98950E+000
     172  -0.92360E+002  -0.49407E+001  -0.21504E+001   0.20227E+001  -0.21957E+000   0.79482E+000
     173  -0.91882E+002  -0.58579E+001  -0.45823E+001   0.19289E+001  -0.57088E-011   0.37566E-010
     174  -0.92360E+002  -0.49407E+001  -0.21504E+001   0.20227E+001   0.21957E+000  -0.79482E+000
     175  -0.92839E+002  -0.40235E+001   0.28156E+000   0.21165E+001   0.33548E+000  -0.98950E+000
     176  -0.94890E+002  -0.89341E+000   0.42508E+000   0.12363E+001  -0.53802E+000   0.10650E+001
     177  -0.94407E+002  -0.19645E+001  -0.22474E+001   0.10818E+001  -0.35565E+000   0.91345E+000
     178  -0.93924E+002  -0.30356E+001  -0.49200E+001   0.92724E+000  -0.70417E-011   0.29612E-010
     179  -0.94407E+002  -0.19645E+001  -0.22474E+001   0.10818E+001   0.35565E+000  -0.91345E+000
     180  -0.94890E+002  -0.89341E+000   0.42508E+000   0.12363E+001   0.53802E+000  -0.10650E+001
     181  -0.46633E+002  -0.49069E+001  -0.21455E+001  -0.16217E+001  -0.30962E-001  -0.32527E+000
     182  -0.45468E+002  -0.49096E+001  -0.36629E+001  -0.15058E+001  -0.11880E-002  -0.25053E+000
     183  -0.44303E+002  -0.49124E+001  -0.51802E+001  -0.13899E+001   0.13277E-011  -0.30251E-011
     184  -0.45468E+002  -0.49096E+001  -0.36629E+001  -0.15058E+001   0.11880E-002   0.25053E+000
     185  -0.46633E+002  -0.49069E+001  -0.21455E+001  -0.16217E+001   0.30962E-001   0.32527E+000
     186  -0.45129E+002  -0.99497E+001  -0.16866E+001  -0.60486E-011   0.26896E-011  -0.40534E+000
     187  -0.44213E+002  -0.10376E+002  -0.37579E+001  -0.42186E-011   0.37322E-011  -0.31923E+000
     188  -0.43297E+002  -0.10803E+002  -0.58293E+001   0.10789E-011   0.36062E-011   0.96897E-011
     189  -0.44213E+002  -0.10376E+002  -0.37579E+001   0.47976E-011   0.16698E-011   0.31923E+000
     190  -0.45129E+002  -0.99497E+001  -0.16866E+001   0.50486E-011   0.90215E-012   0.40534E+000
     191  -0.46633E+002  -0.49069E+001  -0.21455E+001   0.16217E+001   0.30962E-001  -0.32527E+000
     192  -0.45468E+002  -0.49096E+001  -0.36629E+001   0.15058E+001   0.11880E-002  -0.25053E+000
     193  -0.44303E+002  -0.49124E+001  -0.51802E+001   0.13899E+001  -0.28347E-011   0.13761E-010
     194  -0.45468E+002  -0.49096E+001  -0.36629E+001   0.15058E+001  -0.11880E-002   0.25053E+000
     195  -0.46633E+002  -0.49069E+001  -0.21455E+001   0.16217E+001  -0.30962E-001   0.32527E+000
     196  -0.48286E+002  -0.34011E+001  -0.26687E+001  -0.11969E+001  -0.33197E-001  -0.34632E+000
     197  -0.46875E+002  -0.29341E+001  -0.37879E+001  -0.10754E+001  -0.20801E-001  -0.26104E+000
     198  -0.45463E+002  -0.24670E+001  -0.49071E+001  -0.95389E+000   0.45246E-012  -0.42422E-011
     199  -0.46875E+002  -0.29341E+001  -0.37879E+001  -0.10754E+001   0.20801E-001   0.26104E+000
     200  -0.48286E+002  -0.34011E+001  -0.26687E+001  -0.11969E+001   0.33197E-001   0.34632E+000
     201  -0.45140E+002  -0.81675E+001  -0.18246E+001  -0.18200E+001  -0.58040E-001  -0.31330E+000
     202  -0.44244E+002  -0.86334E+001  -0.38393E+001  -0.17423E+001  -0.32094E-001  -0.25319E+000
     203  -0.43348E+002  -0.90994E+001  -0.58539E+001  -0.16646E+001   0.26600E-011   0.20960E-012
     204  -0.44244E+002  -0.86334E+001  -0.38393E+001  -0.17423E+001   0.32094E-001   0.25319E+000
     205  -0.45140E+002  -0.81675E+001  -0.18246E+001  -0.18200E+001   0.58040E-001   0.31330E+000
     206  -0.45214E+002  -0.99360E+001  -0.18567E+001  -0.10906E+001  -0.72711E-001  -0.36386E+000
     207  -0.44319E+002  -0.10379E+002  -0.39493E+001  -0.10608E+001  -0.62872E-001  -0.29280E+000
     208  -0.43425E+002  -0.10822E+002  -0.60419E+001  -0.10309E+001   0.40925E-011   0.43460E-011
     209  -0.44319E+002  -0.10379E+002  -0.39493E+001  -0.10608E+001   0.62872E-001   0.29280E+000
     210  -0.45214E+002  -0.99360E+001  -0.18567E+001  -0.10906E+001   0.72711E-001   0.36386E+000
     211  -0.45214E+002  -0.99360E+001  -0.18567E+001   0.10906E+001   0.72711E-001  -0.36386E+000
     212  -0.44319E+002  -0.10379E+002  -0.39493E+001   0.10608E+001   0.62872E-001  -0.29280E+000
     213  -0.43425E+002  -0.10822E+002  -0.60419E+001   0.10309E+001   0.16776E-011   0.11738E-010
     214  -0.44319E+002  -0.10379E+002  -0.39493E+001   0.10608E+001  -0.62872E-001   0.29280E+000
     215  -0.45214E+002  -0.99360E+001  -0.18567E+001   0.10906E+001  -0.72711E-001   0.36386E+000
     216  -0.45140E+002  -0.81675E+001  -0.18246E+001   0.18200E+001   0.58040E-001  -0.31330E+000
     217  -0.44244E+002  -0.86334E+001  -0.38393E+001   0.17423E+001   0.32094E-001  -0.25319E+000
     218  -0.43348E+002  -0.90994E+001  -0.58539E+001   0.16646E+001  -0.40058E-012   0.11110E-010
     219  -0.44244E+002  -0.86334E+001  -0.38393E+001   0.17423E+001  -0.32094E-001   0.25319E+000
     220  -0.45140E+002  -0.81675E+001  -0.18246E+001   0.18200E+001  -0.58040E-001   0.31330E+000
     221  -0.48286E+002  -0.34011E+001  -0.26687E+001   0.11969E+001   0.33197E-001  -0.34632E+000
     222  -0.46875E+002  -0.29341E+001  -0.37879E+001   0.10754E+001   0.20801E-001  -0.26104E+000
     223  -0.45463E+002  -0.24670E+001  -0.49071E+001   0.95389E+000  -0.36575E-011   0.15864E-010
     224  -0.46875E+002  -0.29341E+001  -0.37879E+001   0.10754E+001  -0.20801E-001   0.26104E+000
     225  -0.48286E+002  -0.34011E+001  -0.26687E+001   0.11969E+001  -0.33197E-001   0.34632E+000
     226  -0.13670E+002  -0.15235E+001  -0.14294E+001  -0.49937E+000  -0.44870E-001  -0.30544E+000
     227  -0.13262E+002  -0.13475E+001  -0.16027E+001  -0.51061E+000  -0.56766E-001  -0.26329E+000
     228  -0.12854E+002  -0.11714E+001  -0.17759E+001  -0.52185E+000  -0.60205E-012  -0.44503E-012
     229  -0.13262E+002  -0.13475E+001  -0.16027E+001  -0.51061E+000   0.56766E-001   0.26329E+000
     230  -0.13670E+002  -0.15235E+001  -0.14294E+001  -0.49937E+000   0.44870E-001   0.30544E+000
     231  -0.13327E+002  -0.20297E+001  -0.13735E+001  -0.56471E+000  -0.60037E-001  -0.33007E+000
     232  -0.12932E+002  -0.19195E+001  -0.15916E+001  -0.55087E+000  -0.53924E-001  -0.27127E+000
     233  -0.12537E+002  -0.18094E+001  -0.18098E+001  -0.53703E+000  -0.10104E-012   0.80881E-013
     234  -0.12932E+002  -0.19195E+001  -0.15916E+001  -0.55087E+000   0.53924E-001   0.27127E+000
     235  -0.13327E+002  -0.20297E+001  -0.13735E+001  -0.56471E+000   0.60037E-001   0.33007E+000
     236  -0.13079E+002  -0.29647E+001  -0.13779E+001  -0.52343E+000  -0.46456E-001  -0.36183E+000
     237  -0.12689E+002  -0.29341E+001  -0.16559E+001  -0.49814E+000  -0.36354E-001  -0.28314E+000
     238  -0.12300E+002  -0.29035E+001  -0.19339E+001  -0.47286E+000   0.63276E-012   0.38622E-012
     239  -0.12689E+002  -0.29341E+001  -0.16559E+001  -0.49814E+000   0.36354E-001   0.28314E+000
     240  -0.13079E+002  -0.29647E+001  -0.13779E+001  -0.52343E+000   0.46456E-001   0.36183E+000
     241  -0.13286E+002  -0.35480E+001  -0.15086E+001  -0.29272E+000  -0.10515E-001  -0.37319E+000
     242  -0.12879E+002  -0.35243E+001  -0.17771E+001  -0.28505E+000  -0.14501E-001  -0.29514E+000
     243  -0.12472E+002  -0.35007E+001  -0.20456E+001  -0.27737E+000   0.50411E-012  -0.42517E-012
     244  -0.12879E+002  -0.35243E+001  -0.17771E+001  -0.28505E+000   0.14501E-001   0.29514E+000
     245  -0.13286E+002  -0.35480E+001  -0.15086E+001  -0.29272E+000   0.10515E-001   0.37319E+000
     246  -0.13397E+002  -0.37025E+001  -0.15789E+001   0.19566E-011   0.61870E-012  -0.37742E+000
     247  -0.12980E+002  -0.36721E+001  -0.18230E+001   0.13010E-011   0.33212E-012  -0.30324E+000
     248  -0.12563E+002  -0.36416E+001  -0.20671E+001   0.11045E-012   0.35842E-013  -0.16351E-011
     249  -0.12980E+002  -0.36721E+001  -0.18230E+001   0.18001E-012  -0.59553E-013   0.30324E+000
     250  -0.13397E+002  -0.37025E+001  -0.15789E+001   0.78453E-012  -0.14526E-012   0.37742E+000
     251  -0.13286E+002  -0.35480E+001  -0.15086E+001   0.29272E+000   0.10515E-001  -0.37319E+000
     252  -0.12879E+002  -0.35243E+001  -0.17771E+001   0.28505E+000   0.14501E-001  -0.29514E+000
     253  -0.12472E+002  -0.35007E+001  -0.20456E+001   0.27737E+000  -0.37296E-013  -0.18740E-011
     254  -0.12879E+002  -0.35243E+001  -0.17771E+001   0.28505E+000  -0.14501E-001   0.29514E+000
     255  -0.13286E+002  -0.35480E+001  -0.15086E+001   0.29272E+000  -0.10515E-001   0.37319E+000
     256  -0.13079E+002  -0.29647E+001  -0.13779E+001   0.52343E+000   0.46456E-001  -0.36183E+000
     257  -0.12689E+002  -0.29341E+001  -0.16559E+001   0.49814E+000   0.36354E-001  -0.28314E+000
     258  -0.12300E+002  -0.29035E+001  -0.19339E+001   0.47286E+000   0.58339E-013  -0.40970E-012
     259  -0.12689E+002  -0.29341E+001  -0.16559E+001   0.49814E+000  -0.36354E-001   0.28314E+000
     260  -0.13079E+002  -0.29647E+001  -0.13779E+001   0.52343E+000  -0.46456E-001   0.36183E+000
     261  -0.13327E+002  -0.20297E+001  -0.13735E+001   0.56471E+000   0.60037E-001  -0.33007E+000
     262  -0.12932E+002  -0.19195E+001  -0.15916E+001   0.55087E+000   0.53924E-001  -0.27127E+000
     263  -0.12537E+002  -0.18094E+001  -0.18098E+001   0.53703E+000  -0.74487E-013   0.94185E-012
     264  -0.12932E+002  -0.19195E+001  -0.15916E+001   0.55087E+000  -0.53924E-001   0.27127E+000
     265  -0.13327E+002  -0.20297E+001  -0.13735E+001   0.56471E+000  -0.60037E-001   0.33007E+000
     266  -0.13670E+002  -0.15235E+001  -0.14294E+001   0.49937E+000   0.44870E-001  -0.30544E+000
     267  -0.13262E+002  -0.13475E+001  -0.16027E+001   0.51061E+000   0.56766E-001  -0.26329E+000
     268  -0.12854E+002  -0.11714E+001  -0.17759E+001   0.52185E+000  -0.26927E-012   0.12094E-011
     269  -0.13262E+002  -0.13475E+001  -0.16027E+001   0.51061E+000  -0.56766E-001   0.26329E+000
     270  -0.13670E+002  -0.15235E+001  -0.14294E+001   0.49937E+000  -0.44870E-001   0.30544E+000
     271  -0.22779E+001  -0.55617E+000  -0.11527E+000  -0.49813E-001  -0.30916E-002  -0.80559E-001
     272  -0.22880E+001  -0.61845E+000  -0.30213E+000  -0.47607E-001  -0.24304E-002  -0.68639E-001
     273  -0.22982E+001  -0.68073E+000  -0.48898E+000  -0.45401E-001  -0.72377E-013  -0.27290E-012
     274  -0.22880E+001  -0.61845E+000  -0.30213E+000  -0.47607E-001   0.24304E-002   0.68639E-001
     275  -0.22779E+001  -0.55617E+000  -0.11527E+000  -0.49813E-001   0.30916E-002   0.80559E-001
     276  -0.22779E+001  -0.55617E+000  -0.11527E+000   0.49813E-001   0.30916E-002  -0.80559E-001
     277  -0.22880E+001  -0.61845E+000  -0.30213E+000   0.47607E-001   0.24304E-002  -0.68639E-001
     278  -0.22982E+001  -0.68073E+000  -0.48898E+000   0.45401E-001   0.63684E-013  -0.33137E-013
     279  -0.22880E+001  -0.61845E+000  -0.30213E+000   0.47607E-001  -0.24304E-002   0.68639E-001
     280  -0.22779E+001  -0.55617E+000  -0.11527E+000   0.49813E-001  -0.30916E-002   0.80559E-001
     281  -0.20556E+001   0.23795E+000   0.25962E+000  -0.87242E-001   0.30384E-001  -0.64533E-001
     282  -0.21447E+001   0.57974E-001  -0.72270E-001  -0.87434E-001   0.12190E-001  -0.46220E-001
     283  -0.22337E+001  -0.12200E+000  -0.40416E+000  -0.87627E-001   0.11701E-012  -0.12554E-012
     284  -0.21447E+001   0.57974E-001  -0.72270E-001  -0.87434E-001  -0.12190E-001   0.46220E-001
     285  -0.20556E+001   0.23795E+000   0.25962E+000  -0.87242E-001  -0.30384E-001   0.64533E-001
     286  -0.21735E+001  -0.19448E+000   0.54176E-001  -0.96353E-001   0.65930E-002  -0.66740E-001
     287  -0.22235E+001  -0.30520E+000  -0.21253E+000  -0.98683E-001  -0.42951E-002  -0.51405E-001
     288  -0.22734E+001  -0.41592E+000  -0.47923E+000  -0.10101E+000   0.63568E-013  -0.14632E-012
     289  -0.22235E+001  -0.30520E+000  -0.21253E+000  -0.98683E-001   0.42951E-002   0.51405E-001
     290  -0.21735E+001  -0.19448E+000   0.54176E-001  -0.96353E-001  -0.65930E-002   0.66740E-001
     291  -0.22611E+001  -0.54451E+000  -0.11716E+000  -0.93948E-001  -0.12543E-001  -0.74819E-001
     292  -0.22712E+001  -0.59527E+000  -0.30978E+000  -0.94529E-001  -0.13250E-001  -0.62439E-001
     293  -0.22812E+001  -0.64603E+000  -0.50240E+000  -0.95109E-001  -0.95969E-013  -0.22447E-012
     294  -0.22712E+001  -0.59527E+000  -0.30978E+000  -0.94529E-001   0.13250E-001   0.62439E-001
     295  -0.22611E+001  -0.54451E+000  -0.11716E+000  -0.93948E-001   0.12543E-001   0.74819E-001
     296  -0.23250E+001  -0.65022E+000  -0.14749E+000   0.52512E-013  -0.78091E-013  -0.80427E-001
     297  -0.23361E+001  -0.71474E+000  -0.33748E+000  -0.31407E-013  -0.37023E-013  -0.68990E-001
     298  -0.23472E+001  -0.77925E+000  -0.52748E+000  -0.65809E-013   0.53191E-013  -0.20509E-012
     299  -0.23361E+001  -0.71474E+000  -0.33748E+000   0.83578E-013   0.11466E-012   0.68990E-001
     300  -0.23250E+001  -0.65022E+000  -0.14749E+000   0.18344E-012   0.12698E-012   0.80427E-001
     301  -0.22611E+001  -0.54451E+000  -0.11716E+000   0.93948E-001   0.12543E-001  -0.74819E-001
     302  -0.22712E+001  -0.59527E+000  -0.30978E+000   0.94529E-001   0.13250E-001  -0.62439E-001
     303  -0.22812E+001  -0.64603E+000  -0.50240E+000   0.95109E-001   0.62403E-013   0.78097E-013
     304  -0.22712E+001  -0.59527E+000  -0.30978E+000   0.94529E-001  -0.13250E-001   0.62439E-001
     305  -0.22611E+001  -0.54451E+000  -0.11716E+000   0.93948E-001  -0.12543E-001   0.74819E-001
     306  -0.21735E+001  -0.19448E+000   0.54176E-001   0.96353E-001  -0.65930E-002  -0.66740E-001
     307  -0.22235E+001  -0.30520E+000  -0.21253E+000   0.98683E-001   0.42951E-002  -0.51405E-001
     308  -0.22734E+001  -0.41592E+000  -0.47923E+000   0.10101E+000   0.35788E-013   0.44753E-013
     309  -0.22235E+001  -0.30520E+000  -0.21253E+000   0.98683E-001  -0.42951E-002   0.51405E-001
     310  -0.21735E+001  -0.19448E+000   0.54176E-001   0.96353E-001   0.65930E-002   0.66740E-001
     311  -0.20556E+001   0.23795E+000   0.25962E+000   0.87242E-001  -0.30384E-001  -0.64533E-001
     312  -0.21447E+001   0.57974E-001  -0.72270E-001   0.87434E-001  -0.12190E-001  -0.46220E-001
     313  -0.22337E+001  -0.12200E+000  -0.40416E+000   0.87627E-001   0.25068E-013   0.13252E-013
     314  -0.21447E+001   0.57974E-001  -0.72270E-001   0.87434E-001   0.12190E-001   0.46220E-001
     315  -0.20556E+001   0.23795E+000   0.25962E+000   0.87242E-001   0.30384E-001   0.64533E-001
     316  -0.30332E+000  -0.34316E-002   0.14603E-001  -0.14635E-001  -0.98712E-003  -0.90780E-002
     317  -0.29233E+000  -0.77678E-002  -0.20671E-001  -0.12170E-001   0.79359E-003  -0.67799E-003
     318  -0.28134E+000  -0.12104E-001  -0.55946E-001  -0.97052E-002  -0.12278E-013   0.17546E-013
     319  -0.29233E+000  -0.77678E-002  -0.20671E-001  -0.12170E-001  -0.79359E-003   0.67799E-003
     320  -0.30332E+000  -0.34316E-002   0.14603E-001  -0.14635E-001   0.98712E-003   0.90780E-002
     321  -0.28858E+000  -0.21818E-001   0.21194E-001  -0.11321E-001  -0.21542E-003  -0.77916E-002
     322  -0.28310E+000  -0.32931E-001  -0.22692E-001  -0.10135E-001   0.12131E-002  -0.32631E-003
     323  -0.27762E+000  -0.44044E-001  -0.66578E-001  -0.89492E-002  -0.96789E-014   0.47161E-014
     324  -0.28310E+000  -0.32931E-001  -0.22692E-001  -0.10135E-001  -0.12131E-002   0.32631E-003
     325  -0.28858E+000  -0.21818E-001   0.21194E-001  -0.11321E-001   0.21542E-003   0.77916E-002
     326  -0.27790E+000  -0.55834E-001   0.28112E-001  -0.10738E-001  -0.48480E-003  -0.65346E-002
     327  -0.28035E+000  -0.74998E-001  -0.29086E-001  -0.10361E-001   0.45691E-003  -0.26125E-003
     328  -0.28280E+000  -0.94162E-001  -0.86284E-001  -0.99846E-002   0.13206E-013  -0.12998E-014
     329  -0.28035E+000  -0.74998E-001  -0.29086E-001  -0.10361E-001  -0.45691E-003   0.26125E-003
     330  -0.27790E+000  -0.55834E-001   0.28112E-001  -0.10738E-001   0.48480E-003   0.65346E-002
     331  -0.28049E+000  -0.60730E-001   0.36495E-001  -0.89742E-002  -0.13690E-002  -0.72144E-002
     332  -0.28598E+000  -0.82208E-001  -0.27921E-001  -0.84113E-002  -0.62298E-003  -0.73439E-003
     333  -0.29148E+000  -0.10369E+000  -0.92336E-001  -0.78483E-002   0.13320E-013   0.88932E-014
     334  -0.28598E+000  -0.82208E-001  -0.27921E-001  -0.84113E-002   0.62298E-003   0.73439E-003
     335  -0.28049E+000  -0.60730E-001   0.36495E-001  -0.89742E-002   0.13690E-002   0.72144E-002
     336  -0.27900E+000  -0.49995E-001   0.44551E-001   0.33898E-013  -0.28512E-014  -0.78647E-002
     337  -0.28512E+000  -0.72514E-001  -0.22381E-001   0.25880E-013  -0.84910E-014  -0.92090E-003
     338  -0.29124E+000  -0.95033E-001  -0.89313E-001   0.91935E-014  -0.45728E-014   0.35876E-014
     339  -0.28512E+000  -0.72514E-001  -0.22381E-001  -0.32541E-014  -0.92595E-015   0.92090E-003
     340  -0.27900E+000  -0.49995E-001   0.44551E-001  -0.70345E-014  -0.68370E-014   0.78647E-002
     341  -0.28049E+000  -0.60730E-001   0.36495E-001   0.89742E-002   0.13690E-002  -0.72144E-002
     342  -0.28598E+000  -0.82208E-001  -0.27921E-001   0.84113E-002   0.62298E-003  -0.73439E-003
     343  -0.29148E+000  -0.10369E+000  -0.92336E-001   0.78483E-002  -0.27308E-014  -0.50472E-014
     344  -0.28598E+000  -0.82208E-001  -0.27921E-001   0.84113E-002  -0.62298E-003   0.73439E-003
     345  -0.28049E+000  -0.60730E-001   0.36495E-001   0.89742E-002  -0.13690E-002   0.72144E-002
     346  -0.27790E+000  -0.55834E-001   0.28112E-001   0.10738E-001   0.48480E-003  -0.65346E-002
     347  -0.28035E+000  -0.74998E-001  -0.29086E-001   0.10361E-001  -0.45691E-003  -0.26125E-003
     348  -0.28280E+000  -0.94162E-001  -0.86284E-001   0.99846E-002  -0.38968E-014  -0.38418E-014
     349  -0.28035E+000  -0.74998E-001  -0.29086E-001   0.10361E-001   0.45691E-003   0.26125E-003
     350  -0.27790E+000  -0.55834E-001   0.28112E-001   0.10738E-001  -0.48480E-003   0.65346E-002
     351  -0.28858E+000  -0.21818E-001   0.21194E-001   0.11321E-001   0.21542E-003  -0.77916E-002
     352  -0.28310E+000  -0.32931E-001  -0.22692E-001   0.10135E-001  -0.12131E-002  -0.32631E-003
     353  -0.27762E+000  -0.44044E-001  -0.66578E-001   0.89492E-002  -0.41254E-014  -0.76911E-014
     354  -0.28310E+000  -0.32931E-001  -0.22692E-001   0.10135E-001   0.12131E-002   0.32631E-003
     355  -0.28858E+000  -0.21818E-001   0.21194E-001   0.11321E-001  -0.21542E-003   0.77916E-002
     356  -0.30332E+000  -0.34316E-002   0.14603E-001   0.14635E-001   0.98712E-003  -0.90780E-002
     357  -0.29233E+000  -0.77678E-002  -0.20671E-001   0.12170E-001  -0.79359E-003  -0.67799E-003
     358  -0.28134E+000  -0.12104E-001  -0.55946E-001   0.97052E-002  -0.36252E-014  -0.12696E-013
     359  -0.29233E+000  -0.77678E-002  -0.20671E-001   0.12170E-001   0.79359E-003   0.67799E-003
     360  -0.30332E+000  -0.34316E-002   0.14603E-001   0.14635E-001  -0.98712E-003   0.90780E-002
     361  -0.46613E-001  -0.48885E-001  -0.48223E-001  -0.13415E-002  -0.23245E-002  -0.67210E-003
     362  -0.36710E-001  -0.34205E-001  -0.24819E-001  -0.20277E-002  -0.16996E-002  -0.24669E-002
     363  -0.26808E-001  -0.19525E-001  -0.14150E-002  -0.27138E-002   0.12662E-014  -0.11182E-014
     364  -0.36710E-001  -0.34205E-001  -0.24819E-001  -0.20277E-002   0.16996E-002   0.24669E-002
     365  -0.46613E-001  -0.48885E-001  -0.48223E-001  -0.13415E-002   0.23245E-002   0.67210E-003
     366  -0.35593E-001  -0.22410E-001  -0.33008E-001  -0.26620E-002  -0.14327E-002  -0.13304E-002
     367  -0.27962E-001  -0.12585E-001  -0.14030E-001  -0.26275E-002  -0.82374E-003  -0.24320E-002
     368  -0.20331E-001  -0.27602E-002   0.49486E-002  -0.25931E-002   0.89104E-015  -0.40902E-015
     369  -0.27962E-001  -0.12585E-001  -0.14030E-001  -0.26275E-002   0.82374E-003   0.24320E-002
     370  -0.35593E-001  -0.22410E-001  -0.33008E-001  -0.26620E-002   0.14327E-002   0.13304E-002
     371  -0.31160E-001  -0.99810E-002  -0.22590E-001  -0.17267E-002  -0.12270E-003  -0.20065E-002
     372  -0.25462E-001  -0.45213E-002  -0.86600E-002  -0.13696E-002   0.65332E-004  -0.21586E-002
     373  -0.19764E-001   0.93845E-003   0.52701E-002  -0.10126E-002  -0.14034E-014  -0.12063E-014
     374  -0.25462E-001  -0.45213E-002  -0.86600E-002  -0.13696E-002  -0.65332E-004   0.21586E-002
     375  -0.31160E-001  -0.99810E-002  -0.22590E-001  -0.17267E-002   0.12270E-003   0.20065E-002
     376  -0.33880E-001  -0.15151E-001  -0.24399E-001  -0.30137E-014   0.16952E-015  -0.19717E-002
     377  -0.27574E-001  -0.90918E-002  -0.10409E-001  -0.10745E-014   0.13331E-014  -0.19194E-002
     378  -0.21268E-001  -0.30328E-002   0.35822E-002   0.17771E-014   0.52178E-015  -0.34609E-014
     379  -0.27574E-001  -0.90918E-002  -0.10409E-001   0.20651E-014  -0.36853E-015   0.19194E-002
     380  -0.33880E-001  -0.15151E-001  -0.24399E-001   0.14410E-014   0.71607E-015   0.19717E-002
     381  -0.31160E-001  -0.99810E-002  -0.22590E-001   0.17267E-002   0.12270E-003  -0.20065E-002
     382  -0.25462E-001  -0.45213E-002  -0.86600E-002   0.13696E-002  -0.65332E-004  -0.21586E-002
     383  -0.19764E-001   0.93845E-003   0.52701E-002   0.10126E-002   0.16242E-014  -0.50621E-015
     384  -0.25462E-001  -0.45213E-002  -0.86600E-002   0.13696E-002   0.65332E-004   0.21586E-002
     385  -0.31160E-001  -0.99810E-002  -0.22590E-001   0.17267E-002  -0.12270E-003   0.20065E-002
     386  -0.35593E-001  -0.22410E-001  -0.33008E-001   0.26620E-002   0.14327E-002  -0.13304E-002
     387  -0.27962E-001  -0.12585E-001  -0.14030E-001   0.26275E-002   0.82374E-003  -0.24320E-002
     388  -0.20331E-001  -0.27602E-002   0.49486E-002   0.25931E-002   0.11939E-014   0.23794E-015
     389  -0.27962E-001  -0.12585E-001  -0.14030E-001   0.26275E-002  -0.82374E-003   0.24320E-002
     390  -0.35593E-001  -0.22410E-001  -0.33008E-001   0.26620E-002  -0.14327E-002   0.13304E-002
     391  -0.46613E-001  -0.48885E-001  -0.48223E-001   0.13415E-002   0.23245E-002  -0.67210E-003
     392  -0.36710E-001  -0.34205E-001  -0.24819E-001   0.20277E-002   0.16996E-002  -0.24669E-002
     393  -0.26808E-001  -0.19525E-001  -0.14150E-002   0.27138E-002   0.84167E-015   0.60311E-015
     394  -0.36710E-001  -0.34205E-001  -0.24819E-001   0.20277E-002  -0.16996E-002   0.24669E-002
     395  -0.46613E-001  -0.48885E-001  -0.48223E-001   0.13415E-002  -0.23245E-002   0.67210E-003
     396  -0.35813E-001  -0.19589E-001  -0.25894E-001  -0.10801E-003   0.72529E-004  -0.19980E-002
     397  -0.29642E-001  -0.13585E-001  -0.12244E-001  -0.11718E-003  -0.18500E-004  -0.19198E-002
     398  -0.23471E-001  -0.75802E-002   0.14051E-002  -0.12634E-003  -0.12193E-014  -0.35255E-014
     399  -0.29642E-001  -0.13585E-001  -0.12244E-001  -0.11718E-003   0.18500E-004   0.19198E-002
     400  -0.35813E-001  -0.19589E-001  -0.25894E-001  -0.10801E-003  -0.72529E-004   0.19980E-002
     401  -0.35813E-001  -0.19589E-001  -0.25894E-001   0.10801E-003  -0.72529E-004  -0.19980E-002
     402  -0.29642E-001  -0.13585E-001  -0.12244E-001   0.11718E-003   0.18500E-004  -0.19198E-002
     403  -0.23471E-001  -0.75802E-002   0.14051E-002   0.12634E-003   0.93082E-015  -0.17343E-014
     404  -0.29642E-001  -0.13585E-001  -0.12244E-001   0.11718E-003  -0.18500E-004   0.19198E-002
     405  -0.35813E-001  -0.19589E-001  -0.25894E-001   0.10801E-003   0.72529E-004   0.19980E-002
     406   0.49709E-002   0.11832E-001   0.11029E-001  -0.22446E-004   0.62875E-003   0.93227E-004
     407   0.21714E-002   0.79727E-002   0.51832E-002   0.61601E-004   0.37512E-003   0.13792E-003
     408  -0.62823E-003   0.41129E-002  -0.66208E-003   0.14565E-003  -0.21780E-015   0.41140E-015
     409   0.21714E-002   0.79727E-002   0.51832E-002   0.61601E-004  -0.37512E-003  -0.13792E-003
     410   0.49709E-002   0.11832E-001   0.11029E-001  -0.22446E-004  -0.62875E-003  -0.93227E-004
     411   0.12553E-002   0.38383E-002   0.62172E-002   0.14271E-003   0.33550E-003   0.18624E-003
     412  -0.69660E-003   0.14869E-002   0.18978E-002   0.11574E-003   0.11027E-003   0.11223E-003
     413  -0.26485E-002  -0.86444E-003  -0.24216E-002   0.88769E-004  -0.33168E-015   0.19163E-015
     414  -0.69660E-003   0.14869E-002   0.18978E-002   0.11574E-003  -0.11027E-003  -0.11223E-003
     415   0.12553E-002   0.38383E-002   0.62172E-002   0.14271E-003  -0.33550E-003  -0.18624E-003
     416  -0.80389E-003  -0.40361E-003   0.25134E-002   0.11122E-003  -0.26209E-004   0.26129E-003
     417  -0.18534E-002  -0.12814E-002   0.10972E-003   0.35451E-004  -0.10993E-003   0.22291E-004
     418  -0.29030E-002  -0.21592E-002  -0.22940E-002  -0.40314E-004  -0.97463E-016  -0.19976E-016
     419  -0.18534E-002  -0.12814E-002   0.10972E-003   0.35451E-004   0.10993E-003  -0.22291E-004
     420  -0.80389E-003  -0.40361E-003   0.25134E-002   0.11122E-003   0.26209E-004  -0.26129E-003
     421   0.17510E-004   0.15980E-002   0.28119E-002  -0.93164E-004  -0.56356E-005   0.23752E-003
     422  -0.97979E-003   0.70470E-003   0.83460E-003  -0.10264E-003  -0.13576E-004  -0.55344E-004
     423  -0.19771E-002  -0.18860E-003  -0.11427E-002  -0.11211E-003   0.25448E-016   0.25370E-016
     424  -0.97979E-003   0.70470E-003   0.83460E-003  -0.10264E-003   0.13576E-004   0.55344E-004
     425   0.17510E-004   0.15980E-002   0.28119E-002  -0.93164E-004   0.56356E-005  -0.23752E-003
     426  -0.81746E-003  -0.15271E-003   0.20029E-002   0.59853E-015   0.12949E-015   0.23171E-003
     427  -0.18172E-002  -0.10266E-002   0.62201E-004   0.41464E-015  -0.12255E-015  -0.68738E-004
     428  -0.28170E-002  -0.19006E-002  -0.18785E-002   0.11566E-015  -0.12968E-015  -0.56094E-016
     429  -0.18172E-002  -0.10266E-002   0.62201E-004   0.10237E-015  -0.31167E-016   0.68738E-004
     430  -0.81746E-003  -0.15271E-003   0.20029E-002   0.20418E-015  -0.17756E-015  -0.23171E-003
     431   0.17510E-004   0.15980E-002   0.28119E-002   0.93164E-004   0.56356E-005   0.23752E-003
     432  -0.97979E-003   0.70470E-003   0.83460E-003   0.10264E-003   0.13576E-004  -0.55344E-004
     433  -0.19771E-002  -0.18860E-003  -0.11427E-002   0.11211E-003  -0.38761E-016  -0.18803E-015
     434  -0.97979E-003   0.70470E-003   0.83460E-003   0.10264E-003  -0.13576E-004   0.55344E-004
     435   0.17510E-004   0.15980E-002   0.28119E-002   0.93164E-004  -0.56356E-005  -0.23752E-003
     436  -0.80389E-003  -0.40361E-003   0.25134E-002  -0.11122E-003   0.26209E-004   0.26129E-003
     437  -0.18534E-002  -0.12814E-002   0.10972E-003  -0.35451E-004   0.10993E-003   0.22291E-004
     438  -0.29030E-002  -0.21592E-002  -0.22940E-002   0.40314E-004   0.21995E-015  -0.10551E-015
     439  -0.18534E-002  -0.12814E-002   0.10972E-003  -0.35451E-004  -0.10993E-003  -0.22291E-004
     440  -0.80389E-003  -0.40361E-003   0.25134E-002  -0.11122E-003  -0.26209E-004  -0.26129E-003
     441   0.12553E-002   0.38383E-002   0.62172E-002  -0.14271E-003  -0.33550E-003   0.18624E-003
     442  -0.69660E-003   0.14869E-002   0.18978E-002  -0.11574E-003  -0.11027E-003   0.11223E-003
     443  -0.26485E-002  -0.86444E-003  -0.24216E-002  -0.88769E-004   0.27831E-015   0.65689E-016
     444  -0.69660E-003   0.14869E-002   0.18978E-002  -0.11574E-003   0.11027E-003  -0.11223E-003
     445   0.12553E-002   0.38383E-002   0.62172E-002  -0.14271E-003   0.33550E-003  -0.18624E-003
     446   0.49709E-002   0.11832E-001   0.11029E-001   0.22446E-004  -0.62875E-003   0.93227E-004
     447   0.21714E-002   0.79727E-002   0.51832E-002  -0.61601E-004  -0.37512E-003   0.13792E-003
     448  -0.62823E-003   0.41129E-002  -0.66208E-003  -0.14565E-003   0.98840E-016   0.14105E-015
     449   0.21714E-002   0.79727E-002   0.51832E-002  -0.61601E-004   0.37512E-003  -0.13792E-003
     450   0.49709E-002   0.11832E-001   0.11029E-001   0.22446E-004   0.62875E-003  -0.93227E-004
     451  -0.20031E-002  -0.15958E-002  -0.14461E-002  -0.18074E-004  -0.77096E-004  -0.21334E-003
     452  -0.12521E-002  -0.98258E-003  -0.74951E-003   0.74671E-005  -0.38575E-004   0.91993E-004
     453  -0.50120E-003  -0.36931E-003  -0.52927E-004   0.33008E-004  -0.38952E-016  -0.81315E-019
     454  -0.12521E-002  -0.98258E-003  -0.74951E-003   0.74671E-005   0.38575E-004  -0.91993E-004
     455  -0.20031E-002  -0.15958E-002  -0.14461E-002  -0.18074E-004   0.77096E-004   0.21334E-003
     456  -0.11076E-002  -0.64182E-003  -0.58091E-003   0.72138E-004  -0.42978E-004  -0.19151E-003
     457  -0.57959E-003  -0.30979E-003  -0.24273E-003   0.84847E-004   0.61594E-005   0.10128E-003
     458  -0.51579E-004   0.22236E-004   0.95444E-004   0.97557E-004  -0.50886E-016   0.32472E-016
     459  -0.57959E-003  -0.30979E-003  -0.24273E-003   0.84847E-004  -0.61594E-005  -0.10128E-003
     460  -0.11076E-002  -0.64182E-003  -0.58091E-003   0.72138E-004   0.42978E-004   0.19151E-003
     461  -0.22785E-003   0.39393E-004   0.17243E-003  -0.18349E-004   0.36264E-005  -0.10360E-003
     462  -0.96837E-004   0.32535E-004   0.82121E-004  -0.10684E-004   0.26082E-004   0.65879E-004
     463   0.34179E-004   0.25677E-004  -0.81925E-005  -0.30187E-005  -0.68164E-016   0.20333E-016
     464  -0.96837E-004   0.32535E-004   0.82121E-004  -0.10684E-004  -0.26082E-004  -0.65879E-004
     465  -0.22785E-003   0.39393E-004   0.17243E-003  -0.18349E-004  -0.36264E-005   0.10360E-003
     466  -0.18949E-003  -0.41508E-004   0.18496E-003   0.75207E-005   0.48912E-006  -0.72320E-004
     467  -0.15014E-003  -0.81424E-004   0.28625E-004   0.13261E-004   0.47286E-005   0.48076E-004
     468  -0.11079E-003  -0.12134E-003  -0.12771E-003   0.19002E-004  -0.50846E-016  -0.10993E-016
     469  -0.15014E-003  -0.81424E-004   0.28625E-004   0.13261E-004  -0.47286E-005  -0.48076E-004
     470  -0.18949E-003  -0.41508E-004   0.18496E-003   0.75207E-005  -0.48912E-006   0.72320E-004
     471  -0.14325E-003   0.13992E-004   0.25340E-003  -0.26478E-016   0.19035E-016  -0.74076E-004
     472  -0.10854E-003  -0.30157E-004   0.66089E-004  -0.26302E-016  -0.69796E-017   0.52617E-004
     473  -0.73834E-004  -0.74306E-004  -0.12123E-003  -0.32912E-016  -0.31949E-016  -0.28996E-016
     474  -0.10854E-003  -0.30157E-004   0.66089E-004  -0.35292E-016  -0.32490E-016  -0.52617E-004
     475  -0.14325E-003   0.13992E-004   0.25340E-003  -0.30873E-016  -0.34075E-016   0.74076E-004
     476  -0.18949E-003  -0.41508E-004   0.18496E-003  -0.75207E-005  -0.48912E-006  -0.72320E-004
     477  -0.15014E-003  -0.81424E-004   0.28625E-004  -0.13261E-004  -0.47286E-005   0.48076E-004
     478  -0.11079E-003  -0.12134E-003  -0.12771E-003  -0.19002E-004  -0.24228E-016  -0.50651E-016
     479  -0.15014E-003  -0.81424E-004   0.28625E-004  -0.13261E-004   0.47286E-005  -0.48076E-004
     480  -0.18949E-003  -0.41508E-004   0.18496E-003  -0.75207E-005   0.48912E-006   0.72320E-004
     481  -0.22785E-003   0.39393E-004   0.17243E-003   0.18349E-004  -0.36264E-005  -0.10360E-003
     482  -0.96837E-004   0.32535E-004   0.82121E-004   0.10684E-004  -0.26082E-004   0.65879E-004
     483   0.34179E-004   0.25677E-004  -0.81925E-005   0.30187E-005   0.38344E-016  -0.48586E-016
     484  -0.96837E-004   0.32535E-004   0.82121E-004   0.10684E-004   0.26082E-004  -0.65879E-004
     485  -0.22785E-003   0.39393E-004   0.17243E-003   0.18349E-004   0.36264E-005   0.10360E-003
     486  -0.11076E-002  -0.64182E-003  -0.58091E-003  -0.72138E-004   0.42978E-004  -0.19151E-003
     487  -0.57959E-003  -0.30979E-003  -0.24273E-003  -0.84847E-004  -0.61594E-005   0.10128E-003
     488  -0.51579E-004   0.22236E-004   0.95444E-004  -0.97557E-004   0.57715E-016   0.62613E-017
     489  -0.57959E-003  -0.30979E-003  -0.24273E-003  -0.84847E-004   0.61594E-005  -0.10128E-003
     490  -0.11076E-002  -0.64182E-003  -0.58091E-003  -0.72138E-004  -0.42978E-004   0.19151E-003
     491  -0.20031E-002  -0.15958E-002  -0.14461E-002   0.18074E-004   0.77096E-004  -0.21334E-003
     492  -0.12521E-002  -0.98258E-003  -0.74951E-003  -0.74671E-005   0.38575E-004   0.91993E-004
     493  -0.50120E-003  -0.36931E-003  -0.52927E-004  -0.33008E-004  -0.30437E-016   0.31713E-016
     494  -0.12521E-002  -0.98258E-003  -0.74951E-003  -0.74671E-005  -0.38575E-004  -0.91993E-004
     495  -0.20031E-002  -0.15958E-002  -0.14461E-002   0.18074E-004  -0.77096E-004   0.21334E-003
     496  -0.57928E-004  -0.12233E-003  -0.16651E-003   0.87162E-005   0.25294E-005   0.13520E-004
     497  -0.38398E-004  -0.85922E-004  -0.67730E-004   0.78775E-005   0.14771E-005  -0.15337E-004
     498  -0.18868E-004  -0.49511E-004   0.31047E-004   0.70388E-005  -0.20510E-017   0.36317E-017
     499  -0.38398E-004  -0.85922E-004  -0.67730E-004   0.78775E-005  -0.14771E-005   0.15337E-004
     500  -0.57928E-004  -0.12233E-003  -0.16651E-003   0.87162E-005  -0.25294E-005  -0.13520E-004
     501  -0.17442E-004  -0.22746E-004  -0.12233E-003   0.11227E-016  -0.57069E-018   0.10790E-004
     502   0.96131E-007   0.11464E-004  -0.28056E-004   0.10909E-016  -0.96249E-018  -0.15185E-004
     503   0.17635E-004   0.45673E-004   0.66218E-004   0.74369E-017  -0.42120E-017   0.69690E-018
     504   0.96131E-007   0.11464E-004  -0.28056E-004   0.50466E-017  -0.38813E-017   0.15185E-004
     505  -0.17442E-004  -0.22746E-004  -0.12233E-003   0.58157E-017  -0.69256E-018  -0.10790E-004
     506  -0.57928E-004  -0.12233E-003  -0.16651E-003  -0.87162E-005  -0.25294E-005   0.13520E-004
     507  -0.38398E-004  -0.85922E-004  -0.67730E-004  -0.78775E-005  -0.14771E-005  -0.15337E-004
     508  -0.18868E-004  -0.49511E-004   0.31047E-004  -0.70388E-005   0.37656E-017   0.58678E-018
     509  -0.38398E-004  -0.85922E-004  -0.67730E-004  -0.78775E-005   0.14771E-005   0.15337E-004
     510  -0.57928E-004  -0.12233E-003  -0.16651E-003  -0.87162E-005   0.25294E-005  -0.13520E-004
     511  -0.98415E-004  -0.22192E-003  -0.21068E-003   0.58675E-004   0.56610E-005   0.16249E-004
     512  -0.76893E-004  -0.18331E-003  -0.10740E-003   0.56821E-004   0.36873E-005  -0.15490E-004
     513  -0.55371E-004  -0.14470E-003  -0.41251E-005   0.54967E-004   0.20087E-017   0.36278E-017
     514  -0.76893E-004  -0.18331E-003  -0.10740E-003   0.56821E-004  -0.36873E-005   0.15490E-004
     515  -0.98415E-004  -0.22192E-003  -0.21068E-003   0.58675E-004  -0.56610E-005  -0.16249E-004
     516  -0.98415E-004  -0.22192E-003  -0.21068E-003  -0.58675E-004  -0.56610E-005   0.16249E-004
     517  -0.76893E-004  -0.18331E-003  -0.10740E-003  -0.56821E-004  -0.36873E-005  -0.15490E-004
     518  -0.55371E-004  -0.14470E-003  -0.41251E-005  -0.54967E-004   0.98446E-017   0.34152E-017
     519  -0.76893E-004  -0.18331E-003  -0.10740E-003  -0.56821E-004   0.36873E-005   0.15490E-004
     520  -0.98415E-004  -0.22192E-003  -0.21068E-003  -0.58675E-004   0.56610E-005  -0.16249E-004
     521   0.79585E-005   0.24565E-004   0.36649E-004   0.30724E-005   0.11337E-005  -0.26801E-005
     522   0.19716E-005   0.15495E-004   0.14474E-004   0.30932E-005   0.65922E-006   0.19887E-005
     523  -0.40153E-005   0.64247E-005  -0.77022E-005   0.31140E-005   0.27230E-018  -0.41515E-018
     524   0.19716E-005   0.15495E-004   0.14474E-004   0.30932E-005  -0.65922E-006  -0.19887E-005
     525   0.79585E-005   0.24565E-004   0.36649E-004   0.30724E-005  -0.11337E-005   0.26801E-005
     526   0.19240E-004   0.59062E-004   0.53820E-004  -0.51453E-005   0.11868E-005  -0.35169E-005
     527   0.12026E-004   0.47983E-004   0.28802E-004  -0.49561E-005   0.70907E-006   0.17656E-005
     528   0.48118E-005   0.36904E-004   0.37835E-005  -0.47668E-005  -0.18568E-018  -0.24077E-018
     529   0.12026E-004   0.47983E-004   0.28802E-004  -0.49561E-005  -0.70907E-006  -0.17656E-005
     530   0.19240E-004   0.59062E-004   0.53820E-004  -0.51453E-005  -0.11868E-005   0.35169E-005
     531  -0.33226E-005  -0.99317E-005   0.19479E-004  -0.83740E-018  -0.99112E-018  -0.18433E-005
     532  -0.80824E-005  -0.16993E-004   0.14548E-006  -0.89897E-018  -0.12465E-018   0.22119E-005
     533  -0.12842E-004  -0.24054E-004  -0.19188E-004  -0.81987E-018   0.67922E-018  -0.63144E-018
     534  -0.80824E-005  -0.16993E-004   0.14548E-006  -0.62924E-018  -0.69814E-021  -0.22119E-005
     535  -0.33226E-005  -0.99317E-005   0.19479E-004  -0.57842E-018  -0.61791E-018   0.18433E-005
     536   0.79585E-005   0.24565E-004   0.36649E-004  -0.30724E-005  -0.11337E-005  -0.26801E-005
     537   0.19716E-005   0.15495E-004   0.14474E-004  -0.30932E-005  -0.65922E-006   0.19887E-005
     538  -0.40153E-005   0.64247E-005  -0.77022E-005  -0.31140E-005   0.13377E-018  -0.65055E-018
     539   0.19716E-005   0.15495E-004   0.14474E-004  -0.30932E-005   0.65922E-006  -0.19887E-005
     540   0.79585E-005   0.24565E-004   0.36649E-004  -0.30724E-005   0.11337E-005   0.26801E-005
     541   0.19240E-004   0.59062E-004   0.53820E-004   0.51453E-005  -0.11868E-005  -0.35169E-005
     542   0.12026E-004   0.47983E-004   0.28802E-004   0.49561E-005  -0.70907E-006   0.17656E-005
     543   0.48118E-005   0.36904E-004   0.37835E-005   0.47668E-005  -0.36064E-018  -0.62829E-018
     544   0.12026E-004   0.47983E-004   0.28802E-004   0.49561E-005   0.70907E-006  -0.17656E-005
     545   0.19240E-004   0.59062E-004   0.53820E-004   0.51453E-005   0.11868E-005   0.35169E-005
     546  -0.39731E-005  -0.98304E-005  -0.86503E-005   0.43003E-006  -0.42278E-006   0.46078E-006
     547  -0.25690E-005  -0.77607E-005  -0.46257E-005   0.35646E-006  -0.24513E-006  -0.23954E-006
     548  -0.11648E-005  -0.56910E-005  -0.60112E-006   0.28289E-006  -0.44387E-019  -0.56983E-019
     549  -0.25690E-005  -0.77607E-005  -0.46257E-005   0.35646E-006   0.24513E-006   0.23954E-006
     550  -0.39731E-005  -0.98304E-005  -0.86503E-005   0.43003E-006   0.42278E-006  -0.46078E-006
     551  -0.21154E-005  -0.41701E-005  -0.55891E-005  -0.57292E-006  -0.31353E-006   0.29782E-006
     552  -0.10669E-005  -0.26683E-005  -0.22904E-005  -0.59140E-006  -0.16036E-006  -0.28386E-006
     553  -0.18445E-007  -0.11665E-005   0.10082E-005  -0.60988E-006  -0.11142E-019  -0.81431E-019
     554  -0.10669E-005  -0.26683E-005  -0.22904E-005  -0.59140E-006   0.16036E-006   0.28386E-006
     555  -0.21154E-005  -0.41701E-005  -0.55891E-005  -0.57292E-006   0.31353E-006  -0.29782E-006
     556  -0.25773E-006   0.14901E-005  -0.25279E-005  -0.28005E-019  -0.23447E-019   0.13485E-006
     557   0.43511E-006   0.24241E-005   0.44834E-007  -0.32697E-019   0.21959E-019  -0.32817E-006
     558   0.11280E-005   0.33580E-005   0.26175E-005   0.34345E-020   0.54648E-019  -0.61979E-019
     559   0.43511E-006   0.24241E-005   0.44834E-007   0.52946E-019   0.62341E-019   0.32817E-006
     560  -0.25773E-006   0.14901E-005  -0.25279E-005   0.61635E-019   0.82753E-019  -0.13485E-006
     561  -0.21154E-005  -0.41701E-005  -0.55891E-005   0.57292E-006   0.31353E-006   0.29782E-006
     562  -0.10669E-005  -0.26683E-005  -0.22904E-005   0.59140E-006   0.16036E-006  -0.28386E-006
     563  -0.18445E-007  -0.11665E-005   0.10082E-005   0.60988E-006   0.77951E-019   0.13036E-019
     564  -0.10669E-005  -0.26683E-005  -0.22904E-005   0.59140E-006  -0.16036E-006   0.28386E-006
     565  -0.21154E-005  -0.41701E-005  -0.55891E-005   0.57292E-006  -0.31353E-006  -0.29782E-006
     566  -0.39731E-005  -0.98304E-005  -0.86503E-005  -0.43003E-006   0.42278E-006   0.46078E-006
     567  -0.25690E-005  -0.77607E-005  -0.46257E-005  -0.35646E-006   0.24513E-006  -0.23954E-006
     568  -0.11648E-005  -0.56910E-005  -0.60112E-006  -0.28289E-006   0.68709E-019   0.44112E-019
     569  -0.25690E-005  -0.77607E-005  -0.46257E-005  -0.35646E-006  -0.24513E-006   0.23954E-006
     570  -0.39731E-005  -0.98304E-005  -0.86503E-005  -0.43003E-006  -0.42278E-006  -0.46078E-006
     571  -0.68172E-008  -0.18146E-006   0.26182E-006  -0.13996E-020  -0.59619E-020  -0.10275E-007
     572  -0.78953E-007  -0.27326E-006  -0.13483E-007  -0.24981E-020  -0.17297E-020   0.34404E-007
     573  -0.15109E-006  -0.36506E-006  -0.28879E-006  -0.40118E-021   0.34744E-020   0.67415E-022
     574  -0.78953E-007  -0.27326E-006  -0.13483E-007   0.47344E-020   0.37884E-020  -0.34404E-007
     575  -0.68172E-008  -0.18146E-006   0.26182E-006   0.66737E-020   0.31320E-020   0.10275E-007
     576   0.47313E-006   0.11730E-005   0.10330E-005  -0.45790E-007   0.58329E-007  -0.47660E-007
     577   0.29093E-006   0.89789E-006   0.54077E-006  -0.35573E-007   0.32098E-007   0.27869E-007
     578   0.10874E-006   0.62275E-006   0.48590E-007  -0.25355E-007  -0.31893E-021  -0.33675E-020
     579   0.29093E-006   0.89789E-006   0.54077E-006  -0.35573E-007  -0.32098E-007  -0.27869E-007
     580   0.47313E-006   0.11730E-005   0.10330E-005  -0.45790E-007  -0.58329E-007   0.47660E-007
     581   0.23315E-006   0.49579E-006   0.64739E-006   0.57341E-007   0.39421E-007  -0.28968E-007
     582   0.10599E-006   0.31232E-006   0.26365E-006   0.58386E-007   0.17418E-007   0.31136E-007
     583  -0.21177E-007   0.12884E-006  -0.12010E-006   0.59431E-007   0.31139E-020  -0.28319E-020
     584   0.10599E-006   0.31232E-006   0.26365E-006   0.58386E-007  -0.17418E-007  -0.31136E-007
     585   0.23315E-006   0.49579E-006   0.64739E-006   0.57341E-007  -0.39421E-007   0.28968E-007
     586   0.23315E-006   0.49579E-006   0.64739E-006  -0.57341E-007  -0.39421E-007  -0.28968E-007
     587   0.10599E-006   0.31232E-006   0.26365E-006  -0.58386E-007  -0.17418E-007   0.31136E-007
     588  -0.21177E-007   0.12884E-006  -0.12010E-006  -0.59431E-007   0.35466E-020   0.21875E-020
     589   0.10599E-006   0.31232E-006   0.26365E-006  -0.58386E-007   0.17418E-007  -0.31136E-007
     590   0.23315E-006   0.49579E-006   0.64739E-006  -0.57341E-007   0.39421E-007   0.28968E-007
     591   0.47313E-006   0.11730E-005   0.10330E-005   0.45790E-007  -0.58329E-007  -0.47660E-007
     592   0.29093E-006   0.89789E-006   0.54077E-006   0.35573E-007  -0.32098E-007   0.27869E-007
     593   0.10874E-006   0.62275E-006   0.48590E-007   0.25355E-007   0.66919E-020   0.19455E-020
     594   0.29093E-006   0.89789E-006   0.54077E-006   0.35573E-007   0.32098E-007  -0.27869E-007
     595   0.47313E-006   0.11730E-005   0.10330E-005   0.45790E-007   0.58329E-007   0.47660E-007
     596  -0.47022E-007  -0.11005E-006  -0.97979E-007   0.37855E-008  -0.57289E-008   0.39905E-008
     597  -0.28714E-007  -0.82075E-007  -0.50434E-007   0.28527E-008  -0.30553E-008  -0.27076E-008
     598  -0.10406E-007  -0.54102E-007  -0.28884E-008   0.19200E-008  -0.77328E-021   0.68139E-022
     599  -0.28714E-007  -0.82075E-007  -0.50434E-007   0.28527E-008   0.30553E-008   0.27076E-008
     600  -0.47022E-007  -0.11005E-006  -0.97979E-007   0.37855E-008   0.57289E-008  -0.39905E-008
     601  -0.23308E-007  -0.46396E-007  -0.60427E-007  -0.50231E-008  -0.36767E-008   0.23772E-008
     602  -0.10963E-007  -0.28706E-007  -0.24551E-007  -0.49472E-008  -0.14430E-008  -0.28182E-008
     603   0.13822E-008  -0.11016E-007   0.11325E-007  -0.48713E-008  -0.66212E-021   0.21274E-021
     604  -0.10963E-007  -0.28706E-007  -0.24551E-007  -0.49472E-008   0.14430E-008   0.28182E-008
     605  -0.23308E-007  -0.46396E-007  -0.60427E-007  -0.50231E-008   0.36767E-008  -0.23772E-008
     606   0.40656E-009   0.17255E-007  -0.22875E-007   0.23978E-021   0.17015E-021   0.76388E-009
     607   0.67884E-008   0.24662E-007   0.13313E-008   0.35832E-021  -0.14038E-021  -0.29288E-008
     608   0.13170E-007   0.32070E-007   0.25537E-007   0.28440E-021  -0.29305E-021   0.21969E-021
     609   0.67884E-008   0.24662E-007   0.13313E-008  -0.23497E-022  -0.23129E-021   0.29288E-008
     610   0.40656E-009   0.17255E-007  -0.22875E-007  -0.13979E-021  -0.32748E-021  -0.76388E-009
     611  -0.23308E-007  -0.46396E-007  -0.60427E-007   0.50231E-008   0.36767E-008   0.23772E-008
     612  -0.10963E-007  -0.28706E-007  -0.24551E-007   0.49472E-008   0.14430E-008  -0.28182E-008
     613   0.13822E-008  -0.11016E-007   0.11325E-007   0.48713E-008  -0.19193E-022   0.22261E-021
     614  -0.10963E-007  -0.28706E-007  -0.24551E-007   0.49472E-008  -0.14430E-008   0.28182E-008
     615  -0.23308E-007  -0.46396E-007  -0.60427E-007   0.50231E-008  -0.36767E-008  -0.23772E-008
     616  -0.47022E-007  -0.11005E-006  -0.97979E-007  -0.37855E-008   0.57289E-008   0.39905E-008
     617  -0.28714E-007  -0.82075E-007  -0.50434E-007  -0.28527E-008   0.30553E-008  -0.27076E-008
     618  -0.10406E-007  -0.54102E-007  -0.28884E-008  -0.19200E-008  -0.33200E-023   0.36303E-021
     619  -0.28714E-007  -0.82075E-007  -0.50434E-007  -0.28527E-008  -0.30553E-008   0.27076E-008
     620  -0.47022E-007  -0.11005E-006  -0.97979E-007  -0.37855E-008  -0.57289E-008  -0.39905E-008
     621   0.36949E-008   0.84694E-008   0.76336E-008  -0.26322E-009   0.45260E-009  -0.28362E-009
     622   0.22076E-008   0.61794E-008   0.38571E-008  -0.19426E-009   0.23748E-009   0.21669E-009
     623   0.72031E-009   0.38895E-008   0.80639E-010  -0.12531E-009   0.21341E-022   0.26399E-022
     624   0.22076E-008   0.61794E-008   0.38571E-008  -0.19426E-009  -0.23748E-009  -0.21669E-009
     625   0.36949E-008   0.84694E-008   0.76336E-008  -0.26322E-009  -0.45260E-009   0.28362E-009
     626   0.18192E-008   0.35690E-008   0.46744E-008   0.37283E-009   0.28087E-009  -0.16911E-009
     627   0.83443E-009   0.21638E-008   0.18779E-008   0.35703E-009   0.10118E-009   0.21382E-009
     628  -0.15037E-009   0.75864E-009  -0.91867E-009   0.34123E-009   0.22921E-025   0.28476E-022
     629   0.83443E-009   0.21638E-008   0.18779E-008   0.35703E-009  -0.10118E-009  -0.21382E-009
     630   0.18192E-008   0.35690E-008   0.46744E-008   0.37283E-009  -0.28087E-009   0.16911E-009
     631  -0.56427E-010  -0.13313E-008   0.17152E-008   0.35672E-022  -0.16483E-022  -0.54605E-010
     632  -0.53874E-009  -0.18517E-008  -0.10138E-009   0.22483E-022  -0.22915E-022   0.21095E-009
     633  -0.10210E-008  -0.23722E-008  -0.19180E-008  -0.11955E-024  -0.19152E-022   0.19799E-022
     634  -0.53874E-009  -0.18517E-008  -0.10138E-009  -0.12942E-022  -0.22651E-023  -0.21095E-009
     635  -0.56427E-010  -0.13313E-008   0.17152E-008  -0.16615E-022   0.44388E-023   0.54605E-010
     636   0.18192E-008   0.35690E-008   0.46744E-008  -0.37283E-009  -0.28087E-009  -0.16911E-009
     637   0.83443E-009   0.21638E-008   0.18779E-008  -0.35703E-009  -0.10118E-009   0.21382E-009
     638  -0.15037E-009   0.75864E-009  -0.91867E-009  -0.34123E-009   0.11799E-022  -0.12043E-022
     639   0.83443E-009   0.21638E-008   0.18779E-008  -0.35703E-009   0.10118E-009  -0.21382E-009
     640   0.18192E-008   0.35690E-008   0.46744E-008  -0.37283E-009   0.28087E-009   0.16911E-009
     641   0.36949E-008   0.84694E-008   0.76336E-008   0.26322E-009  -0.45260E-009  -0.28362E-009
     642   0.22076E-008   0.61794E-008   0.38571E-008   0.19426E-009  -0.23748E-009   0.21669E-009
     643   0.72031E-009   0.38895E-008   0.80639E-010   0.12531E-009   0.40605E-022  -0.33136E-022
     644   0.22076E-008   0.61794E-008   0.38571E-008   0.19426E-009   0.23748E-009  -0.21669E-009
     645   0.36949E-008   0.84694E-008   0.76336E-008   0.26322E-009   0.45260E-009   0.28362E-009
     646   0.23005E-011   0.84580E-010  -0.11222E-009  -0.88635E-024  -0.12766E-023   0.33629E-011
     647   0.33774E-010   0.11680E-009   0.52759E-011  -0.40996E-024   0.34899E-024  -0.13270E-010
     648   0.65248E-010   0.14902E-009   0.12277E-009   0.63230E-024   0.74140E-024   0.17746E-024
     649   0.33774E-010   0.11680E-009   0.52759E-011   0.17404E-023   0.31024E-024   0.13270E-010
     650   0.23005E-011   0.84580E-010  -0.11222E-009   0.22859E-023   0.11114E-023  -0.33629E-011
     651  -0.24506E-009  -0.54965E-009  -0.50145E-009   0.15880E-010  -0.29919E-010   0.17250E-010
     652  -0.14429E-009  -0.39388E-009  -0.24943E-009   0.11505E-010  -0.15591E-010  -0.14658E-010
     653  -0.43515E-010  -0.23812E-009   0.25989E-011   0.71301E-011   0.25809E-023  -0.12044E-023
     654  -0.14429E-009  -0.39388E-009  -0.24943E-009   0.11505E-010   0.15591E-010   0.14658E-010
     655  -0.24506E-009  -0.54965E-009  -0.50145E-009   0.15880E-010   0.29919E-010  -0.17250E-010
     656  -0.12138E-009  -0.23253E-009  -0.30684E-009  -0.23492E-010  -0.18122E-010   0.10307E-010
     657  -0.55257E-010  -0.13854E-009  -0.12208E-009  -0.22056E-010  -0.61515E-011  -0.13964E-010
     658   0.10867E-010  -0.44552E-010   0.62687E-010  -0.20621E-010   0.16493E-023  -0.71207E-024
     659  -0.55257E-010  -0.13854E-009  -0.12208E-009  -0.22056E-010   0.61515E-011   0.13964E-010
     660  -0.12138E-009  -0.23253E-009  -0.30684E-009  -0.23492E-010   0.18122E-010  -0.10307E-010
     661  -0.12138E-009  -0.23253E-009  -0.30684E-009   0.23492E-010   0.18122E-010   0.10307E-010
     662  -0.55257E-010  -0.13854E-009  -0.12208E-009   0.22056E-010   0.61515E-011  -0.13964E-010
     663   0.10867E-010  -0.44552E-010   0.62687E-010   0.20621E-010  -0.19771E-024   0.72383E-024
     664  -0.55257E-010  -0.13854E-009  -0.12208E-009   0.22056E-010  -0.61515E-011   0.13964E-010
     665  -0.12138E-009  -0.23253E-009  -0.30684E-009   0.23492E-010  -0.18122E-010  -0.10307E-010
     666  -0.24506E-009  -0.54965E-009  -0.50145E-009  -0.15880E-010   0.29919E-010   0.17250E-010
     667  -0.14429E-009  -0.39388E-009  -0.24943E-009  -0.11505E-010   0.15591E-010  -0.14658E-010
     668  -0.43515E-010  -0.23812E-009   0.25989E-011  -0.71301E-011  -0.11605E-023   0.87222E-024
     669  -0.14429E-009  -0.39388E-009  -0.24943E-009  -0.11505E-010  -0.15591E-010   0.14658E-010
     670  -0.24506E-009  -0.54965E-009  -0.50145E-009  -0.15880E-010  -0.29919E-010  -0.17250E-010
     671  -0.52731E-013  -0.45776E-011   0.64235E-011   0.86081E-025   0.11361E-025  -0.18416E-012
     672  -0.18426E-011  -0.63468E-011  -0.20064E-012   0.43987E-025  -0.17741E-025   0.73014E-012
     673  -0.36324E-011  -0.81160E-011  -0.68248E-011  -0.15714E-026  -0.47477E-025  -0.61815E-026
     674  -0.18426E-011  -0.63468E-011  -0.20064E-012   0.18169E-025  -0.75242E-026  -0.73014E-012
     675  -0.52731E-013  -0.45776E-011   0.64235E-011   0.41172E-025   0.33064E-025   0.18416E-012
     676   0.13880E-010   0.30656E-010   0.28289E-010  -0.84467E-012   0.16917E-011  -0.91719E-012
     677   0.80580E-011   0.21643E-010   0.13880E-010  -0.60246E-012   0.87999E-012   0.84580E-012
     678   0.22365E-011   0.12629E-010  -0.52918E-012  -0.36025E-012   0.37141E-025   0.35846E-026
     679   0.80580E-011   0.21643E-010   0.13880E-010  -0.60246E-012  -0.87999E-012  -0.84580E-012
     680   0.13880E-010   0.30656E-010   0.28289E-010  -0.84467E-012  -0.16917E-011   0.91719E-012
     681   0.69134E-011   0.13039E-010   0.17356E-010   0.12732E-011   0.10056E-011  -0.55068E-012
     682   0.31077E-011   0.76479E-011   0.68396E-011   0.11792E-011   0.32769E-012   0.78797E-012
     683  -0.69795E-012   0.22566E-011  -0.36770E-011   0.10852E-011   0.38519E-025  -0.40642E-026
     684   0.31077E-011   0.76479E-011   0.68396E-011   0.11792E-011  -0.32769E-012  -0.78797E-012
     685   0.69134E-011   0.13039E-010   0.17356E-010   0.12732E-011  -0.10056E-011   0.55068E-012
     686   0.69134E-011   0.13039E-010   0.17356E-010  -0.12732E-011  -0.10056E-011  -0.55068E-012
     687   0.31077E-011   0.76479E-011   0.68396E-011  -0.11792E-011  -0.32769E-012   0.78797E-012
     688  -0.69795E-012   0.22566E-011  -0.36770E-011  -0.10852E-011  -0.69847E-025  -0.35215E-026
     689   0.31077E-011   0.76479E-011   0.68396E-011  -0.11792E-011   0.32769E-012  -0.78797E-012
     690   0.69134E-011   0.13039E-010   0.17356E-010  -0.12732E-011   0.10056E-011   0.55068E-012
     691   0.13880E-010   0.30656E-010   0.28289E-010   0.84467E-012  -0.16917E-011  -0.91719E-012
     692   0.80580E-011   0.21643E-010   0.13880E-010   0.60246E-012  -0.87999E-012   0.84580E-012
     693   0.22365E-011   0.12629E-010  -0.52918E-012   0.36025E-012  -0.48385E-026  -0.64876E-026
     694   0.80580E-011   0.21643E-010   0.13880E-010   0.60246E-012   0.87999E-012  -0.84580E-012
     695   0.13880E-010   0.30656E-010   0.28289E-010   0.84467E-012   0.16917E-011   0.91719E-012
     696  -0.68531E-012  -0.14936E-011  -0.13928E-011   0.39705E-013  -0.83271E-013   0.42936E-013
     697  -0.39329E-012  -0.10414E-011  -0.67544E-012   0.27915E-013  -0.43369E-013  -0.42258E-013
     698  -0.10127E-012  -0.58920E-012   0.41884E-013   0.16125E-013  -0.17481E-026  -0.37865E-027
     699  -0.39329E-012  -0.10414E-011  -0.67544E-012   0.27915E-013   0.43369E-013   0.42258E-013
     700  -0.68531E-012  -0.14936E-011  -0.13928E-011   0.39705E-013   0.83271E-013  -0.42936E-013
     701  -0.34385E-012  -0.63923E-012  -0.85834E-012  -0.60221E-013  -0.48766E-013   0.25917E-013
     702  -0.15305E-012  -0.36983E-012  -0.33540E-012  -0.55254E-013  -0.15463E-013  -0.38822E-013
     703   0.37748E-013  -0.10044E-012   0.18754E-012  -0.50288E-013  -0.13687E-026  -0.92770E-027
     704  -0.15305E-012  -0.36983E-012  -0.33540E-012  -0.55254E-013   0.15463E-013   0.38822E-013
     705  -0.34385E-012  -0.63923E-012  -0.85834E-012  -0.60221E-013   0.48766E-013  -0.25917E-013
     706  -0.23987E-014   0.21519E-012  -0.32392E-012  -0.21086E-026   0.26693E-027   0.88982E-014
     707   0.87185E-013   0.30175E-012   0.46323E-014  -0.99791E-028  -0.65722E-028  -0.35385E-013
     708   0.17677E-012   0.38832E-012   0.33319E-012   0.20905E-026   0.53021E-027  -0.10707E-026
     709   0.87185E-013   0.30175E-012   0.46323E-014   0.30562E-026   0.11034E-026   0.35385E-013
     710  -0.23987E-014   0.21519E-012  -0.32392E-012   0.38536E-026   0.74794E-027  -0.88982E-014
     711  -0.34385E-012  -0.63923E-012  -0.85834E-012   0.60221E-013   0.48766E-013   0.25917E-013
     712  -0.15305E-012  -0.36983E-012  -0.33540E-012   0.55254E-013   0.15463E-013  -0.38822E-013
     713   0.37748E-013  -0.10044E-012   0.18754E-012   0.50288E-013   0.76741E-027   0.13131E-026
     714  -0.15305E-012  -0.36983E-012  -0.33540E-012   0.55254E-013  -0.15463E-013   0.38822E-013
     715  -0.34385E-012  -0.63923E-012  -0.85834E-012   0.60221E-013  -0.48766E-013  -0.25917E-013
     716  -0.68531E-012  -0.14936E-011  -0.13928E-011  -0.39705E-013   0.83271E-013   0.42936E-013
     717  -0.39329E-012  -0.10414E-011  -0.67544E-012  -0.27915E-013   0.43369E-013  -0.42258E-013
     718  -0.10127E-012  -0.58920E-012   0.41884E-013  -0.16125E-013  -0.51881E-027   0.32876E-026
     719  -0.39329E-012  -0.10414E-011  -0.67544E-012  -0.27915E-013  -0.43369E-013   0.42258E-013
     720  -0.68531E-012  -0.14936E-011  -0.13928E-011  -0.39705E-013  -0.83271E-013  -0.42936E-013
     721   0.59367E-013   0.12800E-012   0.12047E-012  -0.35975E-014   0.71909E-014  -0.38650E-014
     722   0.33732E-013   0.88324E-013   0.57847E-013  -0.24942E-014   0.37557E-014   0.40208E-014
     723   0.80963E-014   0.48646E-013  -0.47735E-014  -0.13909E-014   0.86060E-028   0.15304E-027
     724   0.33732E-013   0.88324E-013   0.57847E-013  -0.24942E-014  -0.37557E-014  -0.40208E-014
     725   0.59367E-013   0.12800E-012   0.12047E-012  -0.35975E-014  -0.71909E-014   0.38650E-014
     726   0.30001E-013   0.55120E-013   0.74628E-013   0.54437E-014   0.41614E-014  -0.23471E-014
     727   0.13231E-013   0.31515E-013   0.28944E-013   0.49608E-014   0.12963E-014   0.36597E-014
     728  -0.35402E-014   0.79090E-014  -0.16739E-013   0.44779E-014   0.49501E-028   0.15659E-027
     729   0.13231E-013   0.31515E-013   0.28944E-013   0.49608E-014  -0.12963E-014  -0.36597E-014
     730   0.30001E-013   0.55120E-013   0.74628E-013   0.54437E-014  -0.41614E-014   0.23471E-014
     731   0.63566E-015  -0.17760E-013   0.28789E-013   0.97819E-028  -0.38654E-028  -0.82910E-015
     732  -0.72705E-014  -0.25294E-013   0.42079E-016   0.56009E-028  -0.44768E-028   0.32987E-014
     733  -0.15177E-013  -0.32829E-013  -0.28705E-013  -0.23666E-028  -0.14298E-028   0.99791E-028
     734  -0.72705E-014  -0.25294E-013   0.42079E-016  -0.12425E-027   0.72279E-028  -0.32987E-014
     735   0.63566E-015  -0.17760E-013   0.28789E-013  -0.18775E-027   0.12237E-027   0.82910E-015
     736   0.30001E-013   0.55120E-013   0.74628E-013  -0.54437E-014  -0.41614E-014  -0.23471E-014
     737   0.13231E-013   0.31515E-013   0.28944E-013  -0.49608E-014  -0.12963E-014   0.36597E-014
     738  -0.35402E-014   0.79090E-014  -0.16739E-013  -0.44779E-014  -0.42993E-028  -0.10058E-027
     739   0.13231E-013   0.31515E-013   0.28944E-013  -0.49608E-014   0.12963E-014  -0.36597E-014
     740   0.30001E-013   0.55120E-013   0.74628E-013  -0.54437E-014   0.41614E-014   0.23471E-014
     741   0.59367E-013   0.12800E-012   0.12047E-012   0.35975E-014  -0.71909E-014  -0.38650E-014
     742   0.33732E-013   0.88324E-013   0.57847E-013   0.24942E-014  -0.37557E-014   0.40208E-014
     743   0.80963E-014   0.48646E-013  -0.47735E-014   0.13909E-014  -0.44447E-028  -0.24060E-027
     744   0.33732E-013   0.88324E-013   0.57847E-013   0.24942E-014   0.37557E-014  -0.40208E-014
     745   0.59367E-013   0.12800E-012   0.12047E-012   0.35975E-014   0.71909E-014   0.38650E-014
