    NODE   SXX         SYY         SZZ         SXY         SYZ         SZX  
       1   0.46064E+002  -0.75307E+001  -0.10282E+001  -0.58139E+001  -0.71474E+001   0.45150E+000
       2   0.31965E+002  -0.11238E+002   0.39029E+001  -0.63129E+001  -0.56824E+001   0.67294E+001
       3   0.17867E+002  -0.14946E+002   0.88341E+001  -0.68118E+001  -0.24991E-009  -0.25225E-009
       4   0.31965E+002  -0.11238E+002   0.39029E+001  -0.63129E+001   0.56824E+001  -0.67294E+001
       5   0.46064E+002  -0.75307E+001  -0.10282E+001  -0.58139E+001   0.71474E+001  -0.45150E+000
       6   0.35201E+002  -0.16079E+002  -0.45105E+000  -0.32274E+001  -0.16832E+001  -0.34068E+000
       7   0.20795E+002  -0.19853E+002   0.40095E+001  -0.45558E+001  -0.17149E+001   0.47211E+001
       8   0.63894E+001  -0.23628E+002   0.84701E+001  -0.58841E+001  -0.17594E-009  -0.14032E-009
       9   0.20795E+002  -0.19853E+002   0.40095E+001  -0.45558E+001   0.17149E+001  -0.47211E+001
      10   0.35201E+002  -0.16079E+002  -0.45105E+000  -0.32274E+001   0.16832E+001   0.34068E+000
      11   0.23486E+002  -0.34465E+002   0.13348E+000  -0.69699E+001   0.38854E+001  -0.15786E+001
      12   0.78148E+001  -0.37534E+002   0.30116E+001  -0.81195E+001   0.15328E+001   0.17051E+001
      13  -0.78569E+001  -0.40603E+002   0.58897E+001  -0.92691E+001  -0.83041E-010   0.92419E-011
      14   0.78148E+001  -0.37534E+002   0.30116E+001  -0.81195E+001  -0.15328E+001  -0.17051E+001
      15   0.23486E+002  -0.34465E+002   0.13348E+000  -0.69699E+001  -0.38854E+001   0.15786E+001
      16   0.22271E+002  -0.49578E+002   0.15697E+001  -0.12161E+002   0.10277E+001  -0.12310E+001
      17   0.34086E+001  -0.56443E+002   0.24270E+001  -0.12068E+002  -0.11855E+001   0.11715E+001
      18  -0.15453E+002  -0.63307E+002   0.32842E+001  -0.11975E+002  -0.47119E-010   0.18099E-009
      19   0.34086E+001  -0.56443E+002   0.24270E+001  -0.12068E+002   0.11855E+001  -0.11715E+001
      20   0.22271E+002  -0.49578E+002   0.15697E+001  -0.12161E+002  -0.10277E+001   0.12310E+001
      21   0.21907E+002  -0.54853E+002   0.29986E+001   0.19028E-010   0.20853E-009  -0.43752E+000
      22   0.81290E+000  -0.66286E+002   0.29469E+001  -0.16995E-009   0.44180E-010   0.16455E+001
      23  -0.20281E+002  -0.77718E+002   0.28953E+001  -0.38199E-009  -0.33312E-010   0.28693E-009
      24   0.81290E+000  -0.66286E+002   0.29469E+001  -0.29435E-009   0.91343E-010  -0.16455E+001
      25   0.21907E+002  -0.54853E+002   0.29986E+001  -0.18365E-009   0.12914E-009   0.43752E+000
      26   0.22271E+002  -0.49578E+002   0.15697E+001   0.12161E+002  -0.10277E+001  -0.12310E+001
      27   0.34086E+001  -0.56443E+002   0.24270E+001   0.12068E+002   0.11855E+001   0.11715E+001
      28  -0.15453E+002  -0.63307E+002   0.32842E+001   0.11975E+002  -0.15865E-010   0.21751E-009
      29   0.34086E+001  -0.56443E+002   0.24270E+001   0.12068E+002  -0.11855E+001  -0.11715E+001
      30   0.22271E+002  -0.49578E+002   0.15697E+001   0.12161E+002   0.10277E+001   0.12310E+001
      31   0.23486E+002  -0.34465E+002   0.13348E+000   0.69699E+001  -0.38854E+001  -0.15786E+001
      32   0.78148E+001  -0.37534E+002   0.30116E+001   0.81195E+001  -0.15328E+001   0.17051E+001
      33  -0.78569E+001  -0.40603E+002   0.58897E+001   0.92691E+001   0.74237E-011   0.30403E-009
      34   0.78148E+001  -0.37534E+002   0.30116E+001   0.81195E+001   0.15328E+001  -0.17051E+001
      35   0.23486E+002  -0.34465E+002   0.13348E+000   0.69699E+001   0.38854E+001   0.15786E+001
      36   0.35201E+002  -0.16079E+002  -0.45105E+000   0.32274E+001   0.16832E+001  -0.34068E+000
      37   0.20795E+002  -0.19853E+002   0.40095E+001   0.45558E+001   0.17149E+001   0.47211E+001
      38   0.63894E+001  -0.23628E+002   0.84701E+001   0.58841E+001  -0.25232E-010   0.31773E-009
      39   0.20795E+002  -0.19853E+002   0.40095E+001   0.45558E+001  -0.17149E+001  -0.47211E+001
      40   0.35201E+002  -0.16079E+002  -0.45105E+000   0.32274E+001  -0.16832E+001   0.34068E+000
      41   0.46064E+002  -0.75307E+001  -0.10282E+001   0.58139E+001   0.71474E+001   0.45150E+000
      42   0.31965E+002  -0.11238E+002   0.39029E+001   0.63129E+001   0.56824E+001   0.67294E+001
      43   0.17867E+002  -0.14946E+002   0.88341E+001   0.68118E+001  -0.60541E-010   0.20369E-009
      44   0.31965E+002  -0.11238E+002   0.39029E+001   0.63129E+001  -0.56824E+001  -0.67294E+001
      45   0.46064E+002  -0.75307E+001  -0.10282E+001   0.58139E+001  -0.71474E+001  -0.45150E+000
      46   0.23932E+002  -0.54200E+001   0.18075E+001  -0.18248E+001  -0.47009E+001   0.10824E+002
      47   0.20179E+002  -0.67219E+001   0.57009E+001  -0.23393E+001  -0.39279E+001   0.12160E+002
      48   0.16427E+002  -0.80238E+001   0.95944E+001  -0.28537E+001  -0.89215E-010  -0.24200E-009
      49   0.20179E+002  -0.67219E+001   0.57009E+001  -0.23393E+001   0.39279E+001  -0.12160E+002
      50   0.23932E+002  -0.54200E+001   0.18075E+001  -0.18248E+001   0.47009E+001  -0.10824E+002
      51   0.12378E+002  -0.32012E+002   0.19493E+001  -0.10342E+002   0.36663E+001   0.86120E+001
      52   0.79369E+001  -0.31274E+002   0.48987E+001  -0.10378E+002   0.13809E+001   0.81380E+001
      53   0.34960E+001  -0.30537E+002   0.78482E+001  -0.10414E+002  -0.78300E-010   0.22738E-010
      54   0.79369E+001  -0.31274E+002   0.48987E+001  -0.10378E+002  -0.13809E+001  -0.81380E+001
      55   0.12378E+002  -0.32012E+002   0.19493E+001  -0.10342E+002  -0.36663E+001  -0.86120E+001
      56   0.12378E+002  -0.32012E+002   0.19493E+001   0.10342E+002  -0.36663E+001   0.86120E+001
      57   0.79369E+001  -0.31274E+002   0.48987E+001   0.10378E+002  -0.13809E+001   0.81380E+001
      58   0.34960E+001  -0.30537E+002   0.78482E+001   0.10414E+002  -0.28426E-010   0.15198E-009
      59   0.79369E+001  -0.31274E+002   0.48987E+001   0.10378E+002   0.13809E+001  -0.81380E+001
      60   0.12378E+002  -0.32012E+002   0.19493E+001   0.10342E+002   0.36663E+001  -0.86120E+001
      61   0.23932E+002  -0.54200E+001   0.18075E+001   0.18248E+001   0.47009E+001   0.10824E+002
      62   0.20179E+002  -0.67219E+001   0.57009E+001   0.23393E+001   0.39279E+001   0.12160E+002
      63   0.16427E+002  -0.80238E+001   0.95944E+001   0.28537E+001  -0.39167E-010   0.79517E-010
      64   0.20179E+002  -0.67219E+001   0.57009E+001   0.23393E+001  -0.39279E+001  -0.12160E+002
      65   0.23932E+002  -0.54200E+001   0.18075E+001   0.18248E+001  -0.47009E+001  -0.10824E+002
      66   0.18106E+002  -0.14108E+002   0.19201E+001  -0.40053E+001  -0.74255E+000   0.96664E+001
      67   0.14419E+002  -0.14472E+002   0.59061E+001  -0.47929E+001  -0.11314E+001   0.10350E+002
      68   0.10732E+002  -0.14835E+002   0.98922E+001  -0.55804E+001  -0.91908E-010  -0.10467E-009
      69   0.14419E+002  -0.14472E+002   0.59061E+001  -0.47929E+001   0.11314E+001  -0.10350E+002
      70   0.18106E+002  -0.14108E+002   0.19201E+001  -0.40053E+001   0.74255E+000  -0.96664E+001
      71   0.11216E+002  -0.43607E+002   0.30905E+001  -0.12205E+002   0.19687E+001   0.94311E+001
      72   0.40269E+001  -0.46901E+002   0.37579E+001  -0.11211E+002  -0.28450E+000   0.80473E+001
      73  -0.31621E+001  -0.50196E+002   0.44252E+001  -0.10217E+002  -0.57839E-011   0.10394E-010
      74   0.40269E+001  -0.46901E+002   0.37579E+001  -0.11211E+002   0.28450E+000  -0.80473E+001
      75   0.11216E+002  -0.43607E+002   0.30905E+001  -0.12205E+002  -0.19687E+001  -0.94311E+001
      76   0.99571E+001  -0.45988E+002   0.43153E+001  -0.24773E-010   0.15610E-010   0.10147E+002
      77   0.83908E+000  -0.53476E+002   0.38295E+001  -0.19375E-009  -0.26249E-010   0.83577E+001
      78  -0.82790E+001  -0.60964E+002   0.33438E+001  -0.32894E-009   0.37511E-010   0.20787E-010
      79   0.83908E+000  -0.53476E+002   0.38295E+001  -0.26371E-009   0.12137E-009  -0.83577E+001
      80   0.99571E+001  -0.45988E+002   0.43153E+001  -0.23227E-009   0.99615E-010  -0.10147E+002
      81   0.11216E+002  -0.43607E+002   0.30905E+001   0.12205E+002  -0.19687E+001   0.94311E+001
      82   0.40269E+001  -0.46901E+002   0.37579E+001   0.11211E+002   0.28450E+000   0.80473E+001
      83  -0.31621E+001  -0.50196E+002   0.44252E+001   0.10217E+002   0.69346E-011   0.62014E-010
      84   0.40269E+001  -0.46901E+002   0.37579E+001   0.11211E+002  -0.28450E+000  -0.80473E+001
      85   0.11216E+002  -0.43607E+002   0.30905E+001   0.12205E+002   0.19687E+001  -0.94311E+001
      86   0.18106E+002  -0.14108E+002   0.19201E+001   0.40053E+001   0.74255E+000   0.96664E+001
      87   0.14419E+002  -0.14472E+002   0.59061E+001   0.47929E+001   0.11314E+001   0.10350E+002
      88   0.10732E+002  -0.14835E+002   0.98922E+001   0.55804E+001  -0.42648E-010   0.14652E-009
      89   0.14419E+002  -0.14472E+002   0.59061E+001   0.47929E+001  -0.11314E+001  -0.10350E+002
      90   0.18106E+002  -0.14108E+002   0.19201E+001   0.40053E+001  -0.74255E+000  -0.96664E+001
      91  -0.78665E+001  -0.80979E+001   0.20566E+001  -0.25334E+001  -0.26688E-001   0.13163E+002
      92  -0.11215E+001  -0.71592E+001   0.44309E+001  -0.27565E+001  -0.91102E+000   0.11023E+002
      93   0.56235E+001  -0.62206E+001   0.68053E+001  -0.29797E+001   0.98770E-010  -0.22628E-009
      94  -0.11215E+001  -0.71592E+001   0.44309E+001  -0.27565E+001   0.91102E+000  -0.11023E+002
      95  -0.78665E+001  -0.80979E+001   0.20566E+001  -0.25334E+001   0.26688E-001  -0.13163E+002
      96  -0.45885E+001  -0.15647E+002   0.23578E+001  -0.85019E+001   0.54687E+000   0.12318E+002
      97   0.20185E+001  -0.13479E+002   0.48895E+001  -0.86729E+001  -0.42443E+000   0.10054E+002
      98   0.86255E+001  -0.11310E+002   0.74213E+001  -0.88439E+001   0.67070E-010  -0.11393E-009
      99   0.20185E+001  -0.13479E+002   0.48895E+001  -0.86729E+001   0.42443E+000  -0.10054E+002
     100  -0.45885E+001  -0.15647E+002   0.23578E+001  -0.85019E+001  -0.54687E+000  -0.12318E+002
     101  -0.19087E+001  -0.27645E+002   0.28765E+001  -0.14009E+002   0.19223E+001   0.11791E+002
     102   0.42280E+001  -0.24418E+002   0.45224E+001  -0.13291E+002   0.41663E+000   0.90251E+001
     103   0.10365E+002  -0.21192E+002   0.61683E+001  -0.12573E+002   0.30998E-010  -0.60268E-010
     104   0.42280E+001  -0.24418E+002   0.45224E+001  -0.13291E+002  -0.41663E+000  -0.90251E+001
     105  -0.19087E+001  -0.27645E+002   0.28765E+001  -0.14009E+002  -0.19223E+001  -0.11791E+002
     106  -0.86456E+001  -0.30116E+002   0.34081E+001  -0.53996E-010  -0.19375E-009   0.13885E+002
     107  -0.39251E+001  -0.31034E+002   0.21196E+001  -0.17675E-009  -0.10375E-009   0.96489E+001
     108   0.79548E+000  -0.31952E+002   0.83106E+000  -0.19883E-009   0.65825E-010  -0.21236E-009
     109  -0.39251E+001  -0.31034E+002   0.21196E+001  -0.18767E-009   0.64440E-010  -0.96489E+001
     110  -0.86456E+001  -0.30116E+002   0.34081E+001  -0.27718E-009  -0.16529E-010  -0.13885E+002
     111  -0.19087E+001  -0.27645E+002   0.28765E+001   0.14009E+002  -0.19223E+001   0.11791E+002
     112   0.42280E+001  -0.24418E+002   0.45224E+001   0.13291E+002  -0.41663E+000   0.90251E+001
     113   0.10365E+002  -0.21192E+002   0.61683E+001   0.12573E+002  -0.92548E-010  -0.14197E-009
     114   0.42280E+001  -0.24418E+002   0.45224E+001   0.13291E+002   0.41663E+000  -0.90251E+001
     115  -0.19087E+001  -0.27645E+002   0.28765E+001   0.14009E+002   0.19223E+001  -0.11791E+002
     116  -0.45885E+001  -0.15647E+002   0.23578E+001   0.85019E+001  -0.54687E+000   0.12318E+002
     117   0.20185E+001  -0.13479E+002   0.48895E+001   0.86729E+001   0.42443E+000   0.10054E+002
     118   0.86255E+001  -0.11310E+002   0.74213E+001   0.88439E+001  -0.75630E-010  -0.25745E-010
     119   0.20185E+001  -0.13479E+002   0.48895E+001   0.86729E+001  -0.42443E+000  -0.10054E+002
     120  -0.45885E+001  -0.15647E+002   0.23578E+001   0.85019E+001   0.54687E+000  -0.12318E+002
     121  -0.78665E+001  -0.80979E+001   0.20566E+001   0.25334E+001   0.26688E-001   0.13163E+002
     122  -0.11215E+001  -0.71592E+001   0.44309E+001   0.27565E+001   0.91102E+000   0.11023E+002
     123   0.56235E+001  -0.62206E+001   0.68053E+001   0.29797E+001  -0.44348E-010   0.53294E-010
     124  -0.11215E+001  -0.71592E+001   0.44309E+001   0.27565E+001  -0.91102E+000  -0.11023E+002
     125  -0.78665E+001  -0.80979E+001   0.20566E+001   0.25334E+001  -0.26688E-001  -0.13163E+002
     126  -0.55762E+001  -0.31105E+002   0.32510E+001  -0.93701E+001   0.21249E+001   0.12998E+002
     127  -0.31375E+000  -0.30036E+002   0.29081E+001  -0.79285E+001   0.52057E+000   0.93068E+001
     128   0.49487E+001  -0.28968E+002   0.25652E+001  -0.64869E+001   0.37870E-010  -0.19698E-009
     129  -0.31375E+000  -0.30036E+002   0.29081E+001  -0.79285E+001  -0.52057E+000  -0.93068E+001
     130  -0.55762E+001  -0.31105E+002   0.32510E+001  -0.93701E+001  -0.21249E+001  -0.12998E+002
     131  -0.55762E+001  -0.31105E+002   0.32510E+001   0.93701E+001  -0.21249E+001   0.12998E+002
     132  -0.31375E+000  -0.30036E+002   0.29081E+001   0.79285E+001  -0.52057E+000   0.93068E+001
     133   0.49487E+001  -0.28968E+002   0.25652E+001   0.64869E+001   0.21763E-011  -0.16443E-009
     134  -0.31375E+000  -0.30036E+002   0.29081E+001   0.79285E+001   0.52057E+000  -0.93068E+001
     135  -0.55762E+001  -0.31105E+002   0.32510E+001   0.93701E+001   0.21249E+001  -0.12998E+002
     136  -0.86195E+001  -0.13493E+002  -0.65521E+000  -0.44990E+001   0.18199E+000   0.29913E+001
     137  -0.60068E+001  -0.12591E+002  -0.22541E+001  -0.41624E+001   0.47507E-001   0.25549E+001
     138  -0.33941E+001  -0.11689E+002  -0.38531E+001  -0.38259E+001   0.46604E-010  -0.31751E-009
     139  -0.60068E+001  -0.12591E+002  -0.22541E+001  -0.41624E+001  -0.47507E-001  -0.25549E+001
     140  -0.86195E+001  -0.13493E+002  -0.65521E+000  -0.44990E+001  -0.18199E+000  -0.29913E+001
     141  -0.86195E+001  -0.13493E+002  -0.65521E+000   0.44990E+001  -0.18199E+000   0.29913E+001
     142  -0.60068E+001  -0.12591E+002  -0.22541E+001   0.41624E+001  -0.47507E-001   0.25549E+001
     143  -0.33941E+001  -0.11689E+002  -0.38531E+001   0.38259E+001  -0.25994E-010  -0.33284E-009
     144  -0.60068E+001  -0.12591E+002  -0.22541E+001   0.41624E+001   0.47507E-001  -0.25549E+001
     145  -0.86195E+001  -0.13493E+002  -0.65521E+000   0.44990E+001   0.18199E+000  -0.29913E+001
     146  -0.34643E+001  -0.76762E+001  -0.14294E+001  -0.67737E+001   0.13942E+001   0.23676E+001
     147  -0.86182E+000  -0.73569E+001   0.61769E+000  -0.67388E+001   0.21789E+000   0.30860E+001
     148   0.17407E+001  -0.70375E+001   0.26647E+001  -0.67038E+001   0.13700E-009  -0.15422E-009
     149  -0.86182E+000  -0.73569E+001   0.61769E+000  -0.67388E+001  -0.21789E+000  -0.30860E+001
     150  -0.34643E+001  -0.76762E+001  -0.14294E+001  -0.67737E+001  -0.13942E+001  -0.23676E+001
     151  -0.18922E+001  -0.10962E+002  -0.99859E+000  -0.89337E+001   0.53300E+000   0.24870E+001
     152   0.14365E+000  -0.11277E+002   0.17849E+000  -0.90986E+001   0.36146E-002   0.30507E+001
     153   0.21795E+001  -0.11592E+002   0.13556E+001  -0.92634E+001   0.14070E-009  -0.14562E-009
     154   0.14365E+000  -0.11277E+002   0.17849E+000  -0.90986E+001  -0.36146E-002  -0.30507E+001
     155  -0.18922E+001  -0.10962E+002  -0.99859E+000  -0.89337E+001  -0.53300E+000  -0.24870E+001
     156  -0.34845E+001  -0.14451E+002  -0.48744E+000  -0.95258E+001  -0.11044E+000   0.25141E+001
     157  -0.17585E+001  -0.14686E+002  -0.10233E+001  -0.95963E+001  -0.10701E+000   0.26891E+001
     158  -0.32552E-001  -0.14920E+002  -0.15591E+001  -0.96667E+001   0.10971E-009  -0.22856E-009
     159  -0.17585E+001  -0.14686E+002  -0.10233E+001  -0.95963E+001   0.10701E+000  -0.26891E+001
     160  -0.34845E+001  -0.14451E+002  -0.48744E+000  -0.95258E+001   0.11044E+000  -0.25141E+001
     161  -0.10590E+002  -0.12332E+002  -0.90336E+000   0.22227E-009  -0.10117E-009   0.35608E+001
     162  -0.73474E+001  -0.11008E+002  -0.27225E+001   0.10074E-009  -0.29905E-010   0.27472E+001
     163  -0.41048E+001  -0.96847E+001  -0.45416E+001   0.29397E-010   0.54739E-011  -0.28297E-009
     164  -0.73474E+001  -0.11008E+002  -0.27225E+001  -0.42982E-010  -0.75805E-010  -0.27472E+001
     165  -0.10590E+002  -0.12332E+002  -0.90336E+000  -0.16555E-009  -0.12120E-009  -0.35608E+001
     166  -0.34845E+001  -0.14451E+002  -0.48744E+000   0.95258E+001   0.11044E+000   0.25141E+001
     167  -0.17585E+001  -0.14686E+002  -0.10233E+001   0.95963E+001   0.10701E+000   0.26891E+001
     168  -0.32552E-001  -0.14920E+002  -0.15591E+001   0.96667E+001  -0.57442E-010  -0.27538E-009
     169  -0.17585E+001  -0.14686E+002  -0.10233E+001   0.95963E+001  -0.10701E+000  -0.26891E+001
     170  -0.34845E+001  -0.14451E+002  -0.48744E+000   0.95258E+001  -0.11044E+000  -0.25141E+001
     171  -0.18922E+001  -0.10962E+002  -0.99859E+000   0.89337E+001  -0.53300E+000   0.24870E+001
     172   0.14365E+000  -0.11277E+002   0.17849E+000   0.90986E+001  -0.36146E-002   0.30507E+001
     173   0.21795E+001  -0.11592E+002   0.13556E+001   0.92634E+001  -0.29480E-010   0.36003E-010
     174   0.14365E+000  -0.11277E+002   0.17849E+000   0.90986E+001   0.36146E-002  -0.30507E+001
     175  -0.18922E+001  -0.10962E+002  -0.99859E+000   0.89337E+001   0.53300E+000  -0.24870E+001
     176  -0.34643E+001  -0.76762E+001  -0.14294E+001   0.67737E+001  -0.13942E+001   0.23676E+001
     177  -0.86182E+000  -0.73569E+001   0.61769E+000   0.67388E+001  -0.21789E+000   0.30860E+001
     178   0.17407E+001  -0.70375E+001   0.26647E+001   0.67038E+001   0.11169E-010   0.20810E-009
     179  -0.86182E+000  -0.73569E+001   0.61769E+000   0.67388E+001   0.21789E+000  -0.30860E+001
     180  -0.34643E+001  -0.76762E+001  -0.14294E+001   0.67737E+001   0.13942E+001  -0.23676E+001
     181  -0.40621E+001   0.51274E+001  -0.29342E+001  -0.25072E+001   0.52328E+000   0.24555E+001
     182  -0.48337E+001   0.34633E+001  -0.26126E+001  -0.28077E+001   0.54520E+000   0.31849E+001
     183  -0.56053E+001   0.17992E+001  -0.22910E+001  -0.31082E+001   0.53093E-010  -0.12212E-009
     184  -0.48337E+001   0.34633E+001  -0.26126E+001  -0.28077E+001  -0.54520E+000  -0.31849E+001
     185  -0.40621E+001   0.51274E+001  -0.29342E+001  -0.25072E+001  -0.52328E+000  -0.24555E+001
     186  -0.12307E+002   0.97122E+001  -0.40630E+001   0.38489E-009   0.23072E-010   0.14433E+001
     187  -0.12183E+002   0.10565E+002  -0.42172E+001   0.24295E-009   0.46395E-010   0.23024E+001
     188  -0.12059E+002   0.11418E+002  -0.43713E+001   0.91758E-010  -0.32760E-011  -0.43545E-009
     189  -0.12183E+002   0.10565E+002  -0.42172E+001   0.67185E-010  -0.85889E-010  -0.23024E+001
     190  -0.12307E+002   0.97122E+001  -0.40630E+001   0.51857E-010  -0.95509E-010  -0.14433E+001
     191  -0.40621E+001   0.51274E+001  -0.29342E+001   0.25072E+001  -0.52328E+000   0.24555E+001
     192  -0.48337E+001   0.34633E+001  -0.26126E+001   0.28077E+001  -0.54520E+000   0.31849E+001
     193  -0.56053E+001   0.17992E+001  -0.22910E+001   0.31082E+001   0.39774E-010  -0.46848E-010
     194  -0.48337E+001   0.34633E+001  -0.26126E+001   0.28077E+001   0.54520E+000  -0.31849E+001
     195  -0.40621E+001   0.51274E+001  -0.29342E+001   0.25072E+001   0.52328E+000  -0.24555E+001
     196   0.88791E+000   0.33619E+001  -0.23231E+001  -0.27816E+001   0.56772E+000   0.25149E+001
     197   0.18478E+000   0.23879E+001  -0.18126E+001  -0.29592E+001   0.29881E+000   0.31735E+001
     198  -0.51834E+000   0.14139E+001  -0.13020E+001  -0.31368E+001   0.47792E-010  -0.86566E-010
     199   0.18478E+000   0.23879E+001  -0.18126E+001  -0.29592E+001  -0.29881E+000  -0.31735E+001
     200   0.88791E+000   0.33619E+001  -0.23231E+001  -0.27816E+001  -0.56772E+000  -0.25149E+001
     201  -0.11052E+002   0.85028E+001  -0.37602E+001  -0.25802E+001   0.17089E-001   0.21151E+001
     202  -0.11634E+002   0.71939E+001  -0.37425E+001  -0.31759E+001   0.47801E+000   0.29690E+001
     203  -0.12216E+002   0.58849E+001  -0.37249E+001  -0.37717E+001   0.33572E-010  -0.27161E-009
     204  -0.11634E+002   0.71939E+001  -0.37425E+001  -0.31759E+001  -0.47801E+000  -0.29690E+001
     205  -0.11052E+002   0.85028E+001  -0.37602E+001  -0.25802E+001  -0.17089E-001  -0.21151E+001
     206  -0.12700E+002   0.99124E+001  -0.40190E+001  -0.17683E+001  -0.59802E+000   0.16387E+001
     207  -0.12799E+002   0.10207E+002  -0.41448E+001  -0.23043E+001  -0.89074E-001   0.25220E+001
     208  -0.12899E+002   0.10502E+002  -0.42706E+001  -0.28404E+001   0.32010E-010  -0.40662E-009
     209  -0.12799E+002   0.10207E+002  -0.41448E+001  -0.23043E+001   0.89074E-001  -0.25220E+001
     210  -0.12700E+002   0.99124E+001  -0.40190E+001  -0.17683E+001   0.59802E+000  -0.16387E+001
     211  -0.12700E+002   0.99124E+001  -0.40190E+001   0.17683E+001   0.59802E+000   0.16387E+001
     212  -0.12799E+002   0.10207E+002  -0.41448E+001   0.23043E+001   0.89074E-001   0.25220E+001
     213  -0.12899E+002   0.10502E+002  -0.42706E+001   0.28404E+001  -0.88426E-011  -0.48081E-009
     214  -0.12799E+002   0.10207E+002  -0.41448E+001   0.23043E+001  -0.89074E-001  -0.25220E+001
     215  -0.12700E+002   0.99124E+001  -0.40190E+001   0.17683E+001  -0.59802E+000  -0.16387E+001
     216  -0.11052E+002   0.85028E+001  -0.37602E+001   0.25802E+001  -0.17089E-001   0.21151E+001
     217  -0.11634E+002   0.71939E+001  -0.37425E+001   0.31759E+001  -0.47801E+000   0.29690E+001
     218  -0.12216E+002   0.58849E+001  -0.37249E+001   0.37717E+001   0.34573E-010  -0.35769E-009
     219  -0.11634E+002   0.71939E+001  -0.37425E+001   0.31759E+001   0.47801E+000  -0.29690E+001
     220  -0.11052E+002   0.85028E+001  -0.37602E+001   0.25802E+001   0.17089E-001  -0.21151E+001
     221   0.88791E+000   0.33619E+001  -0.23231E+001   0.27816E+001  -0.56772E+000   0.25149E+001
     222   0.18478E+000   0.23879E+001  -0.18126E+001   0.29592E+001  -0.29881E+000   0.31735E+001
     223  -0.51834E+000   0.14139E+001  -0.13020E+001   0.31368E+001   0.54538E-010   0.10329E-009
     224   0.18478E+000   0.23879E+001  -0.18126E+001   0.29592E+001   0.29881E+000  -0.31735E+001
     225   0.88791E+000   0.33619E+001  -0.23231E+001   0.27816E+001   0.56772E+000  -0.25149E+001
     226  -0.33518E+002   0.92727E+001  -0.14527E+001   0.46403E+000   0.27239E+000   0.39437E+001
     227  -0.31651E+002   0.78100E+001  -0.45735E+001   0.46491E+000   0.32777E+000   0.33809E+001
     228  -0.29783E+002   0.63472E+001  -0.76942E+001   0.46579E+000  -0.46272E-010  -0.70587E-010
     229  -0.31651E+002   0.78100E+001  -0.45735E+001   0.46491E+000  -0.32777E+000  -0.33809E+001
     230  -0.33518E+002   0.92727E+001  -0.14527E+001   0.46403E+000  -0.27239E+000  -0.39437E+001
     231  -0.37838E+002   0.12639E+002  -0.22969E+001  -0.49518E+000   0.69875E+000   0.36649E+001
     232  -0.35558E+002   0.11817E+002  -0.43286E+001  -0.51799E+000   0.56125E+000   0.32075E+001
     233  -0.33278E+002   0.10995E+002  -0.63603E+001  -0.54080E+000  -0.20236E-010  -0.94584E-010
     234  -0.35558E+002   0.11817E+002  -0.43286E+001  -0.51799E+000  -0.56125E+000  -0.32075E+001
     235  -0.37838E+002   0.12639E+002  -0.22969E+001  -0.49518E+000  -0.69875E+000  -0.36649E+001
     236  -0.43510E+002   0.19974E+002  -0.31646E+001  -0.21626E+001   0.79778E+000   0.32895E+001
     237  -0.40817E+002   0.20192E+002  -0.35687E+001  -0.23454E+001   0.63784E+000   0.30738E+001
     238  -0.38124E+002   0.20411E+002  -0.39728E+001  -0.25281E+001   0.10958E-011  -0.14547E-009
     239  -0.40817E+002   0.20192E+002  -0.35687E+001  -0.23454E+001  -0.63784E+000  -0.30738E+001
     240  -0.43510E+002   0.19974E+002  -0.31646E+001  -0.21626E+001  -0.79778E+000  -0.32895E+001
     241  -0.45870E+002   0.24977E+002  -0.31719E+001  -0.20836E+001   0.22735E+000   0.30121E+001
     242  -0.43624E+002   0.25346E+002  -0.33071E+001  -0.23520E+001   0.28040E+000   0.30317E+001
     243  -0.41378E+002   0.25714E+002  -0.34423E+001  -0.26205E+001   0.30400E-011  -0.18614E-009
     244  -0.43624E+002   0.25346E+002  -0.33071E+001  -0.23520E+001  -0.28040E+000  -0.30317E+001
     245  -0.45870E+002   0.24977E+002  -0.31719E+001  -0.20836E+001  -0.22735E+000  -0.30121E+001
     246  -0.46879E+002   0.26013E+002  -0.31557E+001   0.11941E-009   0.28576E-010   0.28312E+001
     247  -0.45081E+002   0.26132E+002  -0.35606E+001  -0.94508E-013   0.20021E-010   0.29500E+001
     248  -0.43283E+002   0.26250E+002  -0.39654E+001  -0.17357E-009   0.10693E-010  -0.26029E-009
     249  -0.45081E+002   0.26132E+002  -0.35606E+001  -0.10162E-009  -0.85864E-011  -0.29500E+001
     250  -0.46879E+002   0.26013E+002  -0.31557E+001   0.24308E-010  -0.27094E-010  -0.28312E+001
     251  -0.45870E+002   0.24977E+002  -0.31719E+001   0.20836E+001  -0.22735E+000   0.30121E+001
     252  -0.43624E+002   0.25346E+002  -0.33071E+001   0.23520E+001  -0.28040E+000   0.30317E+001
     253  -0.41378E+002   0.25714E+002  -0.34423E+001   0.26205E+001   0.36519E-011  -0.37407E-009
     254  -0.43624E+002   0.25346E+002  -0.33071E+001   0.23520E+001   0.28040E+000  -0.30317E+001
     255  -0.45870E+002   0.24977E+002  -0.31719E+001   0.20836E+001   0.22735E+000  -0.30121E+001
     256  -0.43510E+002   0.19974E+002  -0.31646E+001   0.21626E+001  -0.79778E+000   0.32895E+001
     257  -0.40817E+002   0.20192E+002  -0.35687E+001   0.23454E+001  -0.63784E+000   0.30738E+001
     258  -0.38124E+002   0.20411E+002  -0.39728E+001   0.25281E+001   0.33656E-010  -0.35057E-009
     259  -0.40817E+002   0.20192E+002  -0.35687E+001   0.23454E+001   0.63784E+000  -0.30738E+001
     260  -0.43510E+002   0.19974E+002  -0.31646E+001   0.21626E+001   0.79778E+000  -0.32895E+001
     261  -0.37838E+002   0.12639E+002  -0.22969E+001   0.49518E+000  -0.69875E+000   0.36649E+001
     262  -0.35558E+002   0.11817E+002  -0.43286E+001   0.51799E+000  -0.56125E+000   0.32075E+001
     263  -0.33278E+002   0.10995E+002  -0.63603E+001   0.54080E+000   0.25366E-010  -0.18543E-009
     264  -0.35558E+002   0.11817E+002  -0.43286E+001   0.51799E+000   0.56125E+000  -0.32075E+001
     265  -0.37838E+002   0.12639E+002  -0.22969E+001   0.49518E+000   0.69875E+000  -0.36649E+001
     266  -0.33518E+002   0.92727E+001  -0.14527E+001  -0.46403E+000  -0.27239E+000   0.39437E+001
     267  -0.31651E+002   0.78100E+001  -0.45735E+001  -0.46491E+000  -0.32777E+000   0.33809E+001
     268  -0.29783E+002   0.63472E+001  -0.76942E+001  -0.46579E+000  -0.20974E-010  -0.97195E-010
     269  -0.31651E+002   0.78100E+001  -0.45735E+001  -0.46491E+000   0.32777E+000  -0.33809E+001
     270  -0.33518E+002   0.92727E+001  -0.14527E+001  -0.46403E+000   0.27239E+000  -0.39437E+001
     271  -0.88505E+002   0.23826E+002  -0.15020E+001  -0.20210E+001   0.25694E+000   0.35573E+000
     272  -0.86509E+002   0.23801E+002  -0.30087E+001  -0.17663E+001   0.99968E-001   0.42490E+000
     273  -0.84513E+002   0.23775E+002  -0.45153E+001  -0.15116E+001  -0.94111E-011  -0.28787E-010
     274  -0.86509E+002   0.23801E+002  -0.30087E+001  -0.17663E+001  -0.99968E-001  -0.42490E+000
     275  -0.88505E+002   0.23826E+002  -0.15020E+001  -0.20210E+001  -0.25694E+000  -0.35573E+000
     276  -0.88505E+002   0.23826E+002  -0.15020E+001   0.20210E+001  -0.25694E+000   0.35573E+000
     277  -0.86509E+002   0.23801E+002  -0.30087E+001   0.17663E+001  -0.99968E-001   0.42490E+000
     278  -0.84513E+002   0.23775E+002  -0.45153E+001   0.15116E+001  -0.11096E-010  -0.17192E-009
     279  -0.86509E+002   0.23801E+002  -0.30087E+001   0.17663E+001   0.99968E-001  -0.42490E+000
     280  -0.88505E+002   0.23826E+002  -0.15020E+001   0.20210E+001   0.25694E+000  -0.35573E+000
     281  -0.70498E+002   0.56034E+001  -0.13195E+001  -0.10253E+001  -0.22186E+000   0.13141E+000
     282  -0.68468E+002   0.57273E+001  -0.36730E+001  -0.83208E+000  -0.72824E-001   0.25652E+000
     283  -0.66438E+002   0.58512E+001  -0.60266E+001  -0.63885E+000   0.10727E-010  -0.60858E-010
     284  -0.68468E+002   0.57273E+001  -0.36730E+001  -0.83208E+000   0.72824E-001  -0.25652E+000
     285  -0.70498E+002   0.56034E+001  -0.13195E+001  -0.10253E+001   0.22186E+000  -0.13141E+000
     286  -0.73622E+002   0.94790E+001  -0.93290E+000  -0.20009E+001   0.76663E-001   0.56575E-001
     287  -0.71746E+002   0.93841E+001  -0.33052E+001  -0.17709E+001   0.56588E-001   0.15349E+000
     288  -0.69870E+002   0.92891E+001  -0.56776E+001  -0.15410E+001   0.11575E-010  -0.70814E-010
     289  -0.71746E+002   0.93841E+001  -0.33052E+001  -0.17709E+001  -0.56588E-001  -0.15349E+000
     290  -0.73622E+002   0.94790E+001  -0.93290E+000  -0.20009E+001  -0.76663E-001  -0.56575E-001
     291  -0.81151E+002   0.16894E+002  -0.10448E+001  -0.28954E+001   0.32074E+000   0.12765E+000
     292  -0.79270E+002   0.16780E+002  -0.30355E+001  -0.25820E+001   0.12363E+000   0.17709E+000
     293  -0.77388E+002   0.16666E+002  -0.50262E+001  -0.22687E+001   0.72291E-011  -0.62701E-010
     294  -0.79270E+002   0.16780E+002  -0.30355E+001  -0.25820E+001  -0.12363E+000  -0.17709E+000
     295  -0.81151E+002   0.16894E+002  -0.10448E+001  -0.28954E+001  -0.32074E+000  -0.12765E+000
     296  -0.91453E+002   0.27220E+002  -0.14608E+001  -0.26946E-010   0.17121E-010   0.43791E+000
     297  -0.89502E+002   0.27083E+002  -0.28837E+001  -0.78310E-010  -0.19378E-011   0.54607E+000
     298  -0.87552E+002   0.26945E+002  -0.43067E+001  -0.21127E-009  -0.59104E-011  -0.93022E-010
     299  -0.89502E+002   0.27083E+002  -0.28837E+001  -0.21701E-009   0.10259E-010  -0.54607E+000
     300  -0.91453E+002   0.27220E+002  -0.14608E+001  -0.14115E-009   0.11343E-010  -0.43791E+000
     301  -0.81151E+002   0.16894E+002  -0.10448E+001   0.28954E+001  -0.32074E+000   0.12765E+000
     302  -0.79270E+002   0.16780E+002  -0.30355E+001   0.25820E+001  -0.12363E+000   0.17709E+000
     303  -0.77388E+002   0.16666E+002  -0.50262E+001   0.22687E+001  -0.23880E-011  -0.16199E-009
     304  -0.79270E+002   0.16780E+002  -0.30355E+001   0.25820E+001   0.12363E+000  -0.17709E+000
     305  -0.81151E+002   0.16894E+002  -0.10448E+001   0.28954E+001   0.32074E+000  -0.12765E+000
     306  -0.73622E+002   0.94790E+001  -0.93290E+000   0.20009E+001  -0.76663E-001   0.56575E-001
     307  -0.71746E+002   0.93841E+001  -0.33052E+001   0.17709E+001  -0.56588E-001   0.15349E+000
     308  -0.69870E+002   0.92891E+001  -0.56776E+001   0.15410E+001   0.16278E-010  -0.16407E-009
     309  -0.71746E+002   0.93841E+001  -0.33052E+001   0.17709E+001   0.56588E-001  -0.15349E+000
     310  -0.73622E+002   0.94790E+001  -0.93290E+000   0.20009E+001   0.76663E-001  -0.56575E-001
     311  -0.70498E+002   0.56034E+001  -0.13195E+001   0.10253E+001   0.22186E+000   0.13141E+000
     312  -0.68468E+002   0.57273E+001  -0.36730E+001   0.83208E+000   0.72824E-001   0.25652E+000
     313  -0.66438E+002   0.58512E+001  -0.60266E+001   0.63885E+000   0.61024E-011  -0.17490E-009
     314  -0.68468E+002   0.57273E+001  -0.36730E+001   0.83208E+000  -0.72824E-001  -0.25652E+000
     315  -0.70498E+002   0.56034E+001  -0.13195E+001   0.10253E+001  -0.22186E+000  -0.13141E+000
     316  -0.86648E+002   0.18570E+001   0.49954E+000  -0.70585E+000  -0.26180E+000  -0.14148E+001
     317  -0.88058E+002   0.21787E+001   0.16219E+001  -0.70017E+000  -0.17374E+000  -0.11680E+001
     318  -0.89467E+002   0.25003E+001   0.27443E+001  -0.69448E+000   0.17718E-010  -0.79426E-010
     319  -0.88058E+002   0.21787E+001   0.16219E+001  -0.70017E+000   0.17374E+000   0.11680E+001
     320  -0.86648E+002   0.18570E+001   0.49954E+000  -0.70585E+000   0.26180E+000   0.14148E+001
     321  -0.89749E+002   0.59225E+001   0.11852E+001  -0.30762E+000  -0.25344E+000  -0.14218E+001
     322  -0.91443E+002   0.57425E+001   0.17841E+001  -0.26236E+000  -0.17205E+000  -0.11624E+001
     323  -0.93138E+002   0.55624E+001   0.23830E+001  -0.21710E+000  -0.78207E-011  -0.89419E-010
     324  -0.91443E+002   0.57425E+001   0.17841E+001  -0.26236E+000   0.17205E+000   0.11624E+001
     325  -0.89749E+002   0.59225E+001   0.11852E+001  -0.30762E+000   0.25344E+000   0.14218E+001
     326  -0.97122E+002   0.11941E+002   0.11323E+001   0.43166E+000  -0.22493E+000  -0.14399E+001
     327  -0.98842E+002   0.11452E+002   0.13980E+001   0.49325E+000  -0.19222E+000  -0.11900E+001
     328  -0.10056E+003   0.10963E+002   0.16637E+001   0.55483E+000  -0.24431E-010  -0.11545E-009
     329  -0.98842E+002   0.11452E+002   0.13980E+001   0.49325E+000   0.19222E+000   0.11900E+001
     330  -0.97122E+002   0.11941E+002   0.11323E+001   0.43166E+000   0.22493E+000   0.14399E+001
     331  -0.10358E+003   0.15924E+002   0.42006E-001   0.51325E+000  -0.13991E+000  -0.14530E+001
     332  -0.10464E+003   0.15997E+002   0.94948E+000   0.55114E+000  -0.15719E+000  -0.12395E+001
     333  -0.10571E+003   0.16070E+002   0.18569E+001   0.58903E+000  -0.17205E-010  -0.13605E-009
     334  -0.10464E+003   0.15997E+002   0.94948E+000   0.55114E+000   0.15719E+000   0.12395E+001
     335  -0.10358E+003   0.15924E+002   0.42006E-001   0.51325E+000   0.13991E+000   0.14530E+001
     336  -0.10576E+003   0.17955E+002  -0.30968E+000   0.42246E-010   0.15709E-010  -0.14549E+001
     337  -0.10643E+003   0.18396E+002   0.10492E+001   0.46377E-010   0.32210E-011  -0.12557E+001
     338  -0.10710E+003   0.18838E+002   0.24082E+001   0.18599E-010  -0.27557E-010  -0.16444E-009
     339  -0.10643E+003   0.18396E+002   0.10492E+001  -0.27681E-010  -0.24394E-010   0.12557E+001
     340  -0.10576E+003   0.17955E+002  -0.30968E+000  -0.42054E-010  -0.29416E-011   0.14549E+001
     341  -0.10358E+003   0.15924E+002   0.42006E-001  -0.51325E+000   0.13991E+000  -0.14530E+001
     342  -0.10464E+003   0.15997E+002   0.94948E+000  -0.55114E+000   0.15719E+000  -0.12395E+001
     343  -0.10571E+003   0.16070E+002   0.18569E+001  -0.58903E+000  -0.11123E-010  -0.13187E-009
     344  -0.10464E+003   0.15997E+002   0.94948E+000  -0.55114E+000  -0.15719E+000   0.12395E+001
     345  -0.10358E+003   0.15924E+002   0.42006E-001  -0.51325E+000  -0.13991E+000   0.14530E+001
     346  -0.97122E+002   0.11941E+002   0.11323E+001  -0.43166E+000   0.22493E+000  -0.14399E+001
     347  -0.98842E+002   0.11452E+002   0.13980E+001  -0.49325E+000   0.19222E+000  -0.11900E+001
     348  -0.10056E+003   0.10963E+002   0.16637E+001  -0.55483E+000   0.22010E-011  -0.81625E-010
     349  -0.98842E+002   0.11452E+002   0.13980E+001  -0.49325E+000  -0.19222E+000   0.11900E+001
     350  -0.97122E+002   0.11941E+002   0.11323E+001  -0.43166E+000  -0.22493E+000   0.14399E+001
     351  -0.89749E+002   0.59225E+001   0.11852E+001   0.30762E+000   0.25344E+000  -0.14218E+001
     352  -0.91443E+002   0.57425E+001   0.17841E+001   0.26236E+000   0.17205E+000  -0.11624E+001
     353  -0.93138E+002   0.55624E+001   0.23830E+001   0.21710E+000   0.12641E-010  -0.13734E-009
     354  -0.91443E+002   0.57425E+001   0.17841E+001   0.26236E+000  -0.17205E+000   0.11624E+001
     355  -0.89749E+002   0.59225E+001   0.11852E+001   0.30762E+000  -0.25344E+000   0.14218E+001
     356  -0.86648E+002   0.18570E+001   0.49954E+000   0.70585E+000   0.26180E+000  -0.14148E+001
     357  -0.88058E+002   0.21787E+001   0.16219E+001   0.70017E+000   0.17374E+000  -0.11680E+001
     358  -0.89467E+002   0.25003E+001   0.27443E+001   0.69448E+000   0.34841E-010  -0.18689E-009
     359  -0.88058E+002   0.21787E+001   0.16219E+001   0.70017E+000  -0.17374E+000   0.11680E+001
     360  -0.86648E+002   0.18570E+001   0.49954E+000   0.70585E+000  -0.26180E+000   0.14148E+001
     361  -0.89374E+002  -0.95349E+000   0.17892E+001   0.25291E+001  -0.10376E+000  -0.36891E+000
     362  -0.91862E+002  -0.14884E+001   0.37450E+001   0.24067E+001  -0.46930E-001  -0.35480E+000
     363  -0.94349E+002  -0.20234E+001   0.57009E+001   0.22843E+001  -0.23726E-010  -0.26275E-010
     364  -0.91862E+002  -0.14884E+001   0.37450E+001   0.24067E+001   0.46930E-001   0.35480E+000
     365  -0.89374E+002  -0.95349E+000   0.17892E+001   0.25291E+001   0.10376E+000   0.36891E+000
     366  -0.91183E+002   0.22782E+001   0.24588E+001   0.34436E+001  -0.14427E+000  -0.26062E+000
     367  -0.93429E+002   0.21419E+001   0.45799E+001   0.32733E+001  -0.93440E-001  -0.26338E+000
     368  -0.95676E+002   0.20057E+001   0.67010E+001   0.31030E+001  -0.37797E-010  -0.36796E-010
     369  -0.93429E+002   0.21419E+001   0.45799E+001   0.32733E+001   0.93440E-001   0.26338E+000
     370  -0.91183E+002   0.22782E+001   0.24588E+001   0.34436E+001   0.14427E+000   0.26062E+000
     371  -0.94302E+002   0.67807E+001   0.34576E+001   0.44573E+001  -0.12755E+000  -0.13140E+000
     372  -0.96431E+002   0.67895E+001   0.55047E+001   0.42252E+001  -0.79478E-001  -0.16618E+000
     373  -0.98559E+002   0.67983E+001   0.75518E+001   0.39931E+001  -0.39519E-010  -0.66426E-010
     374  -0.96431E+002   0.67895E+001   0.55047E+001   0.42252E+001   0.79478E-001   0.16618E+000
     375  -0.94302E+002   0.67807E+001   0.34576E+001   0.44573E+001   0.12755E+000   0.13140E+000
     376  -0.97656E+002   0.87318E+001   0.38609E+001   0.80644E-010   0.22811E-010  -0.10337E+000
     377  -0.10001E+003   0.84838E+001   0.54185E+001   0.69319E-010   0.18344E-010  -0.20483E+000
     378  -0.10236E+003   0.82358E+001   0.69760E+001   0.55483E-010  -0.81301E-011  -0.12432E-009
     379  -0.10001E+003   0.84838E+001   0.54185E+001   0.62316E-010  -0.29775E-010   0.20483E+000
     380  -0.97656E+002   0.87318E+001   0.38609E+001   0.71660E-010  -0.29413E-010   0.10337E+000
     381  -0.94302E+002   0.67807E+001   0.34576E+001  -0.44573E+001   0.12755E+000  -0.13140E+000
     382  -0.96431E+002   0.67895E+001   0.55047E+001  -0.42252E+001   0.79478E-001  -0.16618E+000
     383  -0.98559E+002   0.67983E+001   0.75518E+001  -0.39931E+001   0.39755E-011  -0.10304E-009
     384  -0.96431E+002   0.67895E+001   0.55047E+001  -0.42252E+001  -0.79478E-001   0.16618E+000
     385  -0.94302E+002   0.67807E+001   0.34576E+001  -0.44573E+001  -0.12755E+000   0.13140E+000
     386  -0.91183E+002   0.22782E+001   0.24588E+001  -0.34436E+001   0.14427E+000  -0.26062E+000
     387  -0.93429E+002   0.21419E+001   0.45799E+001  -0.32733E+001   0.93440E-001  -0.26338E+000
     388  -0.95676E+002   0.20057E+001   0.67010E+001  -0.31030E+001  -0.57519E-011  -0.11312E-009
     389  -0.93429E+002   0.21419E+001   0.45799E+001  -0.32733E+001  -0.93440E-001   0.26338E+000
     390  -0.91183E+002   0.22782E+001   0.24588E+001  -0.34436E+001  -0.14427E+000   0.26062E+000
     391  -0.89374E+002  -0.95349E+000   0.17892E+001  -0.25291E+001   0.10376E+000  -0.36891E+000
     392  -0.91862E+002  -0.14884E+001   0.37450E+001  -0.24067E+001   0.46930E-001  -0.35480E+000
     393  -0.94349E+002  -0.20234E+001   0.57009E+001  -0.22843E+001  -0.48141E-011  -0.12290E-009
     394  -0.91862E+002  -0.14884E+001   0.37450E+001  -0.24067E+001  -0.46930E-001   0.35480E+000
     395  -0.89374E+002  -0.95349E+000   0.17892E+001  -0.25291E+001  -0.10376E+000   0.36891E+000
     396  -0.96634E+002   0.83917E+001   0.38238E+001   0.32594E+001  -0.72438E-001  -0.10692E+000
     397  -0.98937E+002   0.81453E+001   0.55066E+001   0.30823E+001  -0.32767E-001  -0.18261E+000
     398  -0.10124E+003   0.78988E+001   0.71893E+001   0.29052E+001  -0.13838E-010  -0.10258E-009
     399  -0.98937E+002   0.81453E+001   0.55066E+001   0.30823E+001   0.32767E-001   0.18261E+000
     400  -0.96634E+002   0.83917E+001   0.38238E+001   0.32594E+001   0.72438E-001   0.10692E+000
     401  -0.96634E+002   0.83917E+001   0.38238E+001  -0.32594E+001   0.72438E-001  -0.10692E+000
     402  -0.98937E+002   0.81453E+001   0.55066E+001  -0.30823E+001   0.32767E-001  -0.18261E+000
     403  -0.10124E+003   0.78988E+001   0.71893E+001  -0.29052E+001  -0.55752E-012  -0.11588E-009
     404  -0.98937E+002   0.81453E+001   0.55066E+001  -0.30823E+001  -0.32767E-001   0.18261E+000
     405  -0.96634E+002   0.83917E+001   0.38238E+001  -0.32594E+001  -0.72438E-001   0.10692E+000
     406  -0.62450E+002   0.58571E-001   0.31589E+001   0.38175E+001  -0.21261E-001   0.38184E+000
     407  -0.62632E+002   0.42098E+000   0.52196E+001   0.36349E+001  -0.39496E-001   0.29062E+000
     408  -0.62815E+002   0.78339E+000   0.72802E+001   0.34524E+001  -0.44017E-011   0.26286E-010
     409  -0.62632E+002   0.42098E+000   0.52196E+001   0.36349E+001   0.39496E-001  -0.29062E+000
     410  -0.62450E+002   0.58571E-001   0.31589E+001   0.38175E+001   0.21261E-001  -0.38184E+000
     411  -0.67075E+002  -0.29564E+000   0.29501E+001   0.73950E+001  -0.43757E+000   0.49236E+000
     412  -0.67238E+002   0.96294E-001   0.49177E+001   0.71671E+001  -0.30892E+000   0.40141E+000
     413  -0.67401E+002   0.48823E+000   0.68854E+001   0.69391E+001  -0.11373E-010   0.29366E-010
     414  -0.67238E+002   0.96294E-001   0.49177E+001   0.71671E+001   0.30892E+000  -0.40141E+000
     415  -0.67075E+002  -0.29564E+000   0.29501E+001   0.73950E+001   0.43757E+000  -0.49236E+000
     416  -0.76978E+002  -0.17575E+000   0.28360E+001   0.93894E+001  -0.52348E+000   0.71379E+000
     417  -0.77362E+002  -0.60878E-001   0.42039E+001   0.92029E+001  -0.35780E+000   0.61809E+000
     418  -0.77745E+002   0.53995E-001   0.55718E+001   0.90164E+001  -0.20288E-010   0.20112E-010
     419  -0.77362E+002  -0.60878E-001   0.42039E+001   0.92029E+001   0.35780E+000  -0.61809E+000
     420  -0.76978E+002  -0.17575E+000   0.28360E+001   0.93894E+001   0.52348E+000  -0.71379E+000
     421  -0.83553E+002  -0.10957E+000   0.30161E+001   0.49815E+001  -0.88626E-001   0.82611E+000
     422  -0.84323E+002  -0.44912E+000   0.36518E+001   0.49238E+001  -0.56860E-001   0.74064E+000
     423  -0.85094E+002  -0.78868E+000   0.42876E+001   0.48662E+001  -0.68452E-011  -0.17399E-010
     424  -0.84323E+002  -0.44912E+000   0.36518E+001   0.49238E+001   0.56860E-001  -0.74064E+000
     425  -0.83553E+002  -0.10957E+000   0.30161E+001   0.49815E+001   0.88626E-001  -0.82611E+000
     426  -0.84848E+002  -0.51750E+000   0.31015E+001   0.54003E-010   0.12054E-010   0.82751E+000
     427  -0.85766E+002  -0.10049E+001   0.35118E+001   0.30575E-010   0.11980E-010   0.75731E+000
     428  -0.86684E+002  -0.14923E+001   0.39220E+001  -0.27679E-011   0.76209E-011  -0.52691E-010
     429  -0.85766E+002  -0.10049E+001   0.35118E+001   0.34414E-011  -0.30634E-011  -0.75731E+000
     430  -0.84848E+002  -0.51750E+000   0.31015E+001   0.19566E-010  -0.94637E-011  -0.82751E+000
     431  -0.83553E+002  -0.10957E+000   0.30161E+001  -0.49815E+001   0.88626E-001   0.82611E+000
     432  -0.84323E+002  -0.44912E+000   0.36518E+001  -0.49238E+001   0.56860E-001   0.74064E+000
     433  -0.85094E+002  -0.78868E+000   0.42876E+001  -0.48662E+001   0.16776E-011  -0.65434E-010
     434  -0.84323E+002  -0.44912E+000   0.36518E+001  -0.49238E+001  -0.56860E-001  -0.74064E+000
     435  -0.83553E+002  -0.10957E+000   0.30161E+001  -0.49815E+001  -0.88626E-001  -0.82611E+000
     436  -0.76978E+002  -0.17575E+000   0.28360E+001  -0.93894E+001   0.52348E+000   0.71379E+000
     437  -0.77362E+002  -0.60878E-001   0.42039E+001  -0.92029E+001   0.35780E+000   0.61809E+000
     438  -0.77745E+002   0.53995E-001   0.55718E+001  -0.90164E+001  -0.64711E-011  -0.66844E-010
     439  -0.77362E+002  -0.60878E-001   0.42039E+001  -0.92029E+001  -0.35780E+000  -0.61809E+000
     440  -0.76978E+002  -0.17575E+000   0.28360E+001  -0.93894E+001  -0.52348E+000  -0.71379E+000
     441  -0.67075E+002  -0.29564E+000   0.29501E+001  -0.73950E+001   0.43757E+000   0.49236E+000
     442  -0.67238E+002   0.96294E-001   0.49177E+001  -0.71671E+001   0.30892E+000   0.40141E+000
     443  -0.67401E+002   0.48823E+000   0.68854E+001  -0.69391E+001  -0.77498E-011  -0.58330E-010
     444  -0.67238E+002   0.96294E-001   0.49177E+001  -0.71671E+001  -0.30892E+000  -0.40141E+000
     445  -0.67075E+002  -0.29564E+000   0.29501E+001  -0.73950E+001  -0.43757E+000  -0.49236E+000
     446  -0.62450E+002   0.58571E-001   0.31589E+001  -0.38175E+001   0.21261E-001   0.38184E+000
     447  -0.62632E+002   0.42098E+000   0.52196E+001  -0.36349E+001   0.39496E-001   0.29062E+000
     448  -0.62815E+002   0.78339E+000   0.72802E+001  -0.34524E+001  -0.59039E-011  -0.51033E-010
     449  -0.62632E+002   0.42098E+000   0.52196E+001  -0.36349E+001  -0.39496E-001  -0.29062E+000
     450  -0.62450E+002   0.58571E-001   0.31589E+001  -0.38175E+001  -0.21261E-001  -0.38184E+000
     451  -0.36662E+002   0.38870E+001   0.57895E+001   0.33905E+001   0.81899E-001   0.87122E+000
     452  -0.35479E+002   0.49648E+001   0.78896E+001   0.32384E+001  -0.44689E-001   0.57313E+000
     453  -0.34296E+002   0.60427E+001   0.99897E+001   0.30863E+001   0.12451E-010   0.12316E-010
     454  -0.35479E+002   0.49648E+001   0.78896E+001   0.32384E+001   0.44689E-001  -0.57313E+000
     455  -0.36662E+002   0.38870E+001   0.57895E+001   0.33905E+001  -0.81899E-001  -0.87122E+000
     456  -0.45185E+002  -0.48599E-002   0.40718E+001   0.96667E+001  -0.72554E+000   0.97925E+000
     457  -0.44166E+002   0.64647E+000   0.58030E+001   0.95029E+001  -0.54806E+000   0.71419E+000
     458  -0.43148E+002   0.12978E+001   0.75341E+001   0.93391E+001   0.67834E-011   0.17789E-010
     459  -0.44166E+002   0.64647E+000   0.58030E+001   0.95029E+001   0.54806E+000  -0.71419E+000
     460  -0.45185E+002  -0.48599E-002   0.40718E+001   0.96667E+001   0.72554E+000  -0.97925E+000
     461  -0.62741E+002  -0.51655E+001  -0.66733E+000   0.10782E+002  -0.60131E+000   0.89703E+000
     462  -0.62011E+002  -0.51506E+001  -0.31723E+000   0.10742E+002  -0.47169E+000   0.70033E+000
     463  -0.61281E+002  -0.51358E+001   0.32866E-001   0.10702E+002  -0.42905E-011   0.13788E-010
     464  -0.62011E+002  -0.51506E+001  -0.31723E+000   0.10742E+002   0.47169E+000  -0.70033E+000
     465  -0.62741E+002  -0.51655E+001  -0.66733E+000   0.10782E+002   0.60131E+000  -0.89703E+000
     466  -0.65228E+002  -0.64597E+001  -0.17323E+001   0.49121E+001  -0.25551E-001   0.64796E+000
     467  -0.64449E+002  -0.64248E+001  -0.16329E+001   0.49469E+001  -0.69456E-001   0.51589E+000
     468  -0.63670E+002  -0.63899E+001  -0.15334E+001   0.49818E+001  -0.52747E-011  -0.20854E-011
     469  -0.64449E+002  -0.64248E+001  -0.16329E+001   0.49469E+001   0.69456E-001  -0.51589E+000
     470  -0.65228E+002  -0.64597E+001  -0.17323E+001   0.49121E+001   0.25551E-001  -0.64796E+000
     471  -0.63197E+002  -0.71196E+001  -0.12866E+001   0.13271E-010  -0.66385E-011   0.49401E+000
     472  -0.62307E+002  -0.69597E+001  -0.93174E+000   0.38366E-011  -0.56962E-011   0.40892E+000
     473  -0.61417E+002  -0.67998E+001  -0.57691E+000  -0.12817E-010  -0.54218E-013  -0.18109E-010
     474  -0.62307E+002  -0.69597E+001  -0.93174E+000  -0.19135E-010   0.57146E-011  -0.40892E+000
     475  -0.63197E+002  -0.71196E+001  -0.12866E+001  -0.18234E-010   0.67838E-011  -0.49401E+000
     476  -0.65228E+002  -0.64597E+001  -0.17323E+001  -0.49121E+001   0.25551E-001   0.64796E+000
     477  -0.64449E+002  -0.64248E+001  -0.16329E+001  -0.49469E+001   0.69456E-001   0.51589E+000
     478  -0.63670E+002  -0.63899E+001  -0.15334E+001  -0.49818E+001   0.19166E-011  -0.16075E-010
     479  -0.64449E+002  -0.64248E+001  -0.16329E+001  -0.49469E+001  -0.69456E-001  -0.51589E+000
     480  -0.65228E+002  -0.64597E+001  -0.17323E+001  -0.49121E+001  -0.25551E-001  -0.64796E+000
     481  -0.62741E+002  -0.51655E+001  -0.66733E+000  -0.10782E+002   0.60131E+000   0.89703E+000
     482  -0.62011E+002  -0.51506E+001  -0.31723E+000  -0.10742E+002   0.47169E+000   0.70033E+000
     483  -0.61281E+002  -0.51358E+001   0.32866E-001  -0.10702E+002  -0.41485E-011  -0.10899E-010
     484  -0.62011E+002  -0.51506E+001  -0.31723E+000  -0.10742E+002  -0.47169E+000  -0.70033E+000
     485  -0.62741E+002  -0.51655E+001  -0.66733E+000  -0.10782E+002  -0.60131E+000  -0.89703E+000
     486  -0.45185E+002  -0.48599E-002   0.40718E+001  -0.96667E+001   0.72554E+000   0.97925E+000
     487  -0.44166E+002   0.64647E+000   0.58030E+001  -0.95029E+001   0.54806E+000   0.71419E+000
     488  -0.43148E+002   0.12978E+001   0.75341E+001  -0.93391E+001  -0.78517E-011  -0.15330E-010
     489  -0.44166E+002   0.64647E+000   0.58030E+001  -0.95029E+001  -0.54806E+000  -0.71419E+000
     490  -0.45185E+002  -0.48599E-002   0.40718E+001  -0.96667E+001  -0.72554E+000  -0.97925E+000
     491  -0.36662E+002   0.38870E+001   0.57895E+001  -0.33905E+001  -0.81899E-001   0.87122E+000
     492  -0.35479E+002   0.49648E+001   0.78896E+001  -0.32384E+001   0.44689E-001   0.57313E+000
     493  -0.34296E+002   0.60427E+001   0.99897E+001  -0.30863E+001  -0.24859E-011  -0.16271E-010
     494  -0.35479E+002   0.49648E+001   0.78896E+001  -0.32384E+001  -0.44689E-001  -0.57313E+000
     495  -0.36662E+002   0.38870E+001   0.57895E+001  -0.33905E+001   0.81899E-001  -0.87122E+000
     496  -0.38689E+002  -0.45093E+001  -0.15825E+001   0.21869E+001   0.74578E-001  -0.62239E-001
     497  -0.38302E+002  -0.46876E+001  -0.24229E+001   0.22032E+001   0.31231E-001  -0.83495E-001
     498  -0.37916E+002  -0.48658E+001  -0.32632E+001   0.22196E+001  -0.28292E-011   0.25117E-011
     499  -0.38302E+002  -0.46876E+001  -0.24229E+001   0.22032E+001  -0.31231E-001   0.83495E-001
     500  -0.38689E+002  -0.45093E+001  -0.15825E+001   0.21869E+001  -0.74578E-001   0.62239E-001
     501  -0.35975E+002  -0.57008E+001  -0.13333E+001  -0.19733E-011  -0.36577E-011  -0.89397E-001
     502  -0.35518E+002  -0.57907E+001  -0.19907E+001  -0.48085E-011  -0.35371E-011  -0.11807E+000
     503  -0.35061E+002  -0.58806E+001  -0.26481E+001  -0.79591E-011  -0.23242E-011   0.18265E-011
     504  -0.35518E+002  -0.57907E+001  -0.19907E+001  -0.80527E-011  -0.29661E-012   0.11807E+000
     505  -0.35975E+002  -0.57008E+001  -0.13333E+001  -0.78312E-011   0.63864E-012   0.89397E-001
     506  -0.38689E+002  -0.45093E+001  -0.15825E+001  -0.21869E+001  -0.74578E-001  -0.62239E-001
     507  -0.38302E+002  -0.46876E+001  -0.24229E+001  -0.22032E+001  -0.31231E-001  -0.83495E-001
     508  -0.37916E+002  -0.48658E+001  -0.32632E+001  -0.22196E+001  -0.20589E-013   0.27457E-011
     509  -0.38302E+002  -0.46876E+001  -0.24229E+001  -0.22032E+001   0.31231E-001   0.83495E-001
     510  -0.38689E+002  -0.45093E+001  -0.15825E+001  -0.21869E+001   0.74578E-001   0.62239E-001
     511  -0.41402E+002  -0.33178E+001  -0.18317E+001   0.30775E+001   0.91708E-001  -0.35080E-001
     512  -0.41086E+002  -0.35844E+001  -0.28550E+001   0.30970E+001   0.21860E-001  -0.48920E-001
     513  -0.40771E+002  -0.38510E+001  -0.38783E+001   0.31165E+001  -0.20280E-011   0.32504E-011
     514  -0.41086E+002  -0.35844E+001  -0.28550E+001   0.30970E+001  -0.21860E-001   0.48920E-001
     515  -0.41402E+002  -0.33178E+001  -0.18317E+001   0.30775E+001  -0.91708E-001   0.35080E-001
     516  -0.41402E+002  -0.33178E+001  -0.18317E+001  -0.30775E+001  -0.91708E-001  -0.35080E-001
     517  -0.41086E+002  -0.35844E+001  -0.28550E+001  -0.30970E+001  -0.21860E-001  -0.48920E-001
     518  -0.40771E+002  -0.38510E+001  -0.38783E+001  -0.31165E+001   0.97679E-012   0.36112E-011
     519  -0.41086E+002  -0.35844E+001  -0.28550E+001  -0.30970E+001   0.21860E-001   0.48920E-001
     520  -0.41402E+002  -0.33178E+001  -0.18317E+001  -0.30775E+001   0.91708E-001   0.35080E-001
     521  -0.15602E+002  -0.90839E+000  -0.10211E+000  -0.19093E+000   0.55763E-003  -0.19993E+000
     522  -0.15458E+002  -0.10600E+001  -0.78855E+000  -0.19401E+000   0.87530E-002  -0.13821E+000
     523  -0.15313E+002  -0.12117E+001  -0.14750E+001  -0.19709E+000  -0.60172E-012   0.25495E-011
     524  -0.15458E+002  -0.10600E+001  -0.78855E+000  -0.19401E+000  -0.87530E-002   0.13821E+000
     525  -0.15602E+002  -0.90839E+000  -0.10211E+000  -0.19093E+000  -0.55763E-003   0.19993E+000
     526  -0.15495E+002  -0.99579E-001   0.12490E+000  -0.53688E+000   0.20992E-001  -0.23507E+000
     527  -0.15322E+002  -0.21504E+000  -0.49841E+000  -0.53948E+000   0.20031E-001  -0.16457E+000
     528  -0.15150E+002  -0.33050E+000  -0.11217E+001  -0.54207E+000  -0.93396E-012   0.23575E-011
     529  -0.15322E+002  -0.21504E+000  -0.49841E+000  -0.53948E+000  -0.20031E-001   0.16457E+000
     530  -0.15495E+002  -0.99579E-001   0.12490E+000  -0.53688E+000  -0.20992E-001   0.23507E+000
     531  -0.15709E+002  -0.17172E+001  -0.32912E+000   0.43369E-011   0.30400E-012  -0.16478E+000
     532  -0.15593E+002  -0.19050E+001  -0.10787E+001   0.36542E-011   0.76040E-013  -0.11184E+000
     533  -0.15477E+002  -0.20929E+001  -0.18282E+001   0.19752E-011  -0.50178E-012   0.17950E-011
     534  -0.15593E+002  -0.19050E+001  -0.10787E+001   0.74218E-012  -0.13295E-011   0.11184E+000
     535  -0.15709E+002  -0.17172E+001  -0.32912E+000   0.50540E-012  -0.18074E-011   0.16478E+000
     536  -0.15602E+002  -0.90839E+000  -0.10211E+000   0.19093E+000  -0.55763E-003  -0.19993E+000
     537  -0.15458E+002  -0.10600E+001  -0.78855E+000   0.19401E+000  -0.87530E-002  -0.13821E+000
     538  -0.15313E+002  -0.12117E+001  -0.14750E+001   0.19709E+000  -0.60027E-012   0.33707E-012
     539  -0.15458E+002  -0.10600E+001  -0.78855E+000   0.19401E+000   0.87530E-002   0.13821E+000
     540  -0.15602E+002  -0.90839E+000  -0.10211E+000   0.19093E+000   0.55763E-003   0.19993E+000
     541  -0.15495E+002  -0.99579E-001   0.12490E+000   0.53688E+000  -0.20992E-001  -0.23507E+000
     542  -0.15322E+002  -0.21504E+000  -0.49841E+000   0.53948E+000  -0.20031E-001  -0.16457E+000
     543  -0.15150E+002  -0.33050E+000  -0.11217E+001   0.54207E+000  -0.46647E-012  -0.17428E-012
     544  -0.15322E+002  -0.21504E+000  -0.49841E+000   0.53948E+000   0.20031E-001   0.16457E+000
     545  -0.15495E+002  -0.99579E-001   0.12490E+000   0.53688E+000   0.20992E-001   0.23507E+000
     546  -0.51442E+001  -0.42370E+000  -0.38854E+000  -0.71204E-001  -0.22079E-001  -0.26377E-001
     547  -0.49788E+001  -0.39502E+000  -0.47336E+000  -0.69678E-001  -0.20308E-001  -0.24345E-001
     548  -0.48135E+001  -0.36633E+000  -0.55818E+000  -0.68153E-001   0.54716E-012   0.35086E-012
     549  -0.49788E+001  -0.39502E+000  -0.47336E+000  -0.69678E-001   0.20308E-001   0.24345E-001
     550  -0.51442E+001  -0.42370E+000  -0.38854E+000  -0.71204E-001   0.22079E-001   0.26377E-001
     551  -0.50491E+001  -0.38297E+000  -0.30394E+000  -0.14746E+000  -0.18426E-001  -0.45281E-001
     552  -0.48943E+001  -0.36840E+000  -0.41100E+000  -0.14560E+000  -0.15185E-001  -0.33499E-001
     553  -0.47396E+001  -0.35382E+000  -0.51807E+000  -0.14375E+000   0.15863E-012   0.18826E-012
     554  -0.48943E+001  -0.36840E+000  -0.41100E+000  -0.14560E+000   0.15185E-001   0.33499E-001
     555  -0.50491E+001  -0.38297E+000  -0.30394E+000  -0.14746E+000   0.18426E-001   0.45281E-001
     556  -0.49540E+001  -0.34224E+000  -0.21934E+000   0.45651E-012   0.65881E-013  -0.64184E-001
     557  -0.48098E+001  -0.34178E+000  -0.34865E+000   0.59059E-012  -0.19147E-013  -0.42652E-001
     558  -0.46657E+001  -0.34131E+000  -0.47796E+000   0.47032E-012  -0.16168E-012  -0.26234E-012
     559  -0.48098E+001  -0.34178E+000  -0.34865E+000  -0.22634E-012  -0.17326E-012   0.42652E-001
     560  -0.49540E+001  -0.34224E+000  -0.21934E+000  -0.66868E-012  -0.12734E-012   0.64184E-001
     561  -0.50491E+001  -0.38297E+000  -0.30394E+000   0.14746E+000   0.18426E-001  -0.45281E-001
     562  -0.48943E+001  -0.36840E+000  -0.41100E+000   0.14560E+000   0.15185E-001  -0.33499E-001
     563  -0.47396E+001  -0.35382E+000  -0.51807E+000   0.14375E+000  -0.51916E-013  -0.60294E-012
     564  -0.48943E+001  -0.36840E+000  -0.41100E+000   0.14560E+000  -0.15185E-001   0.33499E-001
     565  -0.50491E+001  -0.38297E+000  -0.30394E+000   0.14746E+000  -0.18426E-001   0.45281E-001
     566  -0.51442E+001  -0.42370E+000  -0.38854E+000   0.71204E-001   0.22079E-001  -0.26377E-001
     567  -0.49788E+001  -0.39502E+000  -0.47336E+000   0.69678E-001   0.20308E-001  -0.24345E-001
     568  -0.48135E+001  -0.36633E+000  -0.55818E+000   0.68153E-001  -0.10380E-013  -0.65555E-012
     569  -0.49788E+001  -0.39502E+000  -0.47336E+000   0.69678E-001  -0.20308E-001   0.24345E-001
     570  -0.51442E+001  -0.42370E+000  -0.38854E+000   0.71204E-001  -0.22079E-001   0.26377E-001
     571  -0.12473E+001  -0.22092E+000  -0.12313E+000  -0.47223E-013  -0.10353E-013  -0.19372E-001
     572  -0.12157E+001  -0.21800E+000  -0.15112E+000  -0.73834E-013  -0.15094E-013  -0.19118E-001
     573  -0.11841E+001  -0.21508E+000  -0.17912E+000  -0.61531E-013  -0.42943E-013  -0.39805E-013
     574  -0.12157E+001  -0.21800E+000  -0.15112E+000  -0.59283E-013  -0.48983E-013   0.19118E-001
     575  -0.12473E+001  -0.22092E+000  -0.12313E+000  -0.95951E-013  -0.31916E-013   0.19372E-001
     576  -0.12436E+001   0.73342E-001   0.14385E-001  -0.23767E-001   0.11179E-001  -0.25280E-001
     577  -0.12320E+001   0.53587E-001  -0.56005E-001  -0.25300E-001   0.30151E-002  -0.19438E-001
     578  -0.12205E+001   0.33833E-001  -0.12639E+000  -0.26833E-001  -0.64499E-013   0.89677E-013
     579  -0.12320E+001   0.53587E-001  -0.56005E-001  -0.25300E-001  -0.30151E-002   0.19438E-001
     580  -0.12436E+001   0.73342E-001   0.14385E-001  -0.23767E-001  -0.11179E-001   0.25280E-001
     581  -0.12455E+001  -0.73788E-001  -0.54370E-001   0.38687E-002   0.60009E-002  -0.22326E-001
     582  -0.12239E+001  -0.82205E-001  -0.10356E+000   0.30880E-002   0.78170E-003  -0.19278E-001
     583  -0.12023E+001  -0.90621E-001  -0.15276E+000   0.23073E-002  -0.63408E-013   0.70034E-014
     584  -0.12239E+001  -0.82205E-001  -0.10356E+000   0.30880E-002  -0.78170E-003   0.19278E-001
     585  -0.12455E+001  -0.73788E-001  -0.54370E-001   0.38687E-002  -0.60009E-002   0.22326E-001
     586  -0.12455E+001  -0.73788E-001  -0.54370E-001  -0.38687E-002  -0.60009E-002  -0.22326E-001
     587  -0.12239E+001  -0.82205E-001  -0.10356E+000  -0.30880E-002  -0.78170E-003  -0.19278E-001
     588  -0.12023E+001  -0.90621E-001  -0.15276E+000  -0.23073E-002   0.33973E-015  -0.48465E-013
     589  -0.12239E+001  -0.82205E-001  -0.10356E+000  -0.30880E-002   0.78170E-003   0.19278E-001
     590  -0.12455E+001  -0.73788E-001  -0.54370E-001  -0.38687E-002   0.60009E-002   0.22326E-001
     591  -0.12436E+001   0.73342E-001   0.14385E-001   0.23767E-001  -0.11179E-001  -0.25280E-001
     592  -0.12320E+001   0.53587E-001  -0.56005E-001   0.25300E-001  -0.30151E-002  -0.19438E-001
     593  -0.12205E+001   0.33833E-001  -0.12639E+000   0.26833E-001   0.24249E-013  -0.92992E-013
     594  -0.12320E+001   0.53587E-001  -0.56005E-001   0.25300E-001   0.30151E-002   0.19438E-001
     595  -0.12436E+001   0.73342E-001   0.14385E-001   0.23767E-001   0.11179E-001   0.25280E-001
     596  -0.26838E+000  -0.11225E-001  -0.31590E-003  -0.22325E-002  -0.26171E-003  -0.59957E-002
     597  -0.26824E+000  -0.18834E-001  -0.23515E-001  -0.17668E-002   0.47148E-003  -0.33154E-002
     598  -0.26810E+000  -0.26443E-001  -0.46714E-001  -0.13012E-002  -0.13196E-013   0.91175E-014
     599  -0.26824E+000  -0.18834E-001  -0.23515E-001  -0.17668E-002  -0.47148E-003   0.33154E-002
     600  -0.26838E+000  -0.11225E-001  -0.31590E-003  -0.22325E-002   0.26171E-003   0.59957E-002
     601  -0.25812E+000  -0.17796E-001   0.44020E-002  -0.34389E-002  -0.22430E-003  -0.56663E-002
     602  -0.25976E+000  -0.26708E-001  -0.22254E-001  -0.34141E-002   0.36629E-003  -0.31434E-002
     603  -0.26140E+000  -0.35621E-001  -0.48911E-001  -0.33894E-002  -0.94468E-014   0.28619E-014
     604  -0.25976E+000  -0.26708E-001  -0.22254E-001  -0.34141E-002  -0.36629E-003   0.31434E-002
     605  -0.25812E+000  -0.17796E-001   0.44020E-002  -0.34389E-002   0.22430E-003   0.56663E-002
     606  -0.24786E+000  -0.24368E-001   0.91200E-002   0.40334E-013  -0.10495E-013  -0.53370E-002
     607  -0.25128E+000  -0.34583E-001  -0.20994E-001   0.29239E-013  -0.93168E-014  -0.29713E-002
     608  -0.25470E+000  -0.44798E-001  -0.51108E-001   0.13698E-013  -0.55599E-014  -0.80603E-014
     609  -0.25128E+000  -0.34583E-001  -0.20994E-001   0.24842E-013  -0.11053E-013   0.29713E-002
     610  -0.24786E+000  -0.24368E-001   0.91200E-002   0.40431E-013  -0.19124E-013   0.53370E-002
     611  -0.25812E+000  -0.17796E-001   0.44020E-002   0.34389E-002   0.22430E-003  -0.56663E-002
     612  -0.25976E+000  -0.26708E-001  -0.22254E-001   0.34141E-002  -0.36629E-003  -0.31434E-002
     613  -0.26140E+000  -0.35621E-001  -0.48911E-001   0.33894E-002  -0.11936E-013  -0.19989E-013
     614  -0.25976E+000  -0.26708E-001  -0.22254E-001   0.34141E-002   0.36629E-003   0.31434E-002
     615  -0.25812E+000  -0.17796E-001   0.44020E-002   0.34389E-002  -0.22430E-003   0.56663E-002
     616  -0.26838E+000  -0.11225E-001  -0.31590E-003   0.22325E-002   0.26171E-003  -0.59957E-002
     617  -0.26824E+000  -0.18834E-001  -0.23515E-001   0.17668E-002  -0.47148E-003  -0.33154E-002
     618  -0.26810E+000  -0.26443E-001  -0.46714E-001   0.13012E-002  -0.18450E-013  -0.27251E-013
     619  -0.26824E+000  -0.18834E-001  -0.23515E-001   0.17668E-002   0.47148E-003   0.33154E-002
     620  -0.26838E+000  -0.11225E-001  -0.31590E-003   0.22325E-002  -0.26171E-003   0.59957E-002
     621  -0.57470E-001  -0.20614E-001  -0.17438E-001  -0.20410E-002  -0.80771E-003  -0.64400E-003
     622  -0.52286E-001  -0.16018E-001  -0.12538E-001  -0.20479E-002  -0.46382E-003  -0.67218E-003
     623  -0.47102E-001  -0.11423E-001  -0.76389E-002  -0.20548E-002  -0.20783E-015  -0.30549E-014
     624  -0.52286E-001  -0.16018E-001  -0.12538E-001  -0.20479E-002   0.46382E-003   0.67218E-003
     625  -0.57470E-001  -0.20614E-001  -0.17438E-001  -0.20410E-002   0.80771E-003   0.64400E-003
     626  -0.51611E-001  -0.11877E-001  -0.10764E-001  -0.17604E-002  -0.69995E-003  -0.96819E-003
     627  -0.47675E-001  -0.93402E-002  -0.82149E-002  -0.16537E-002  -0.27607E-003  -0.69188E-003
     628  -0.43738E-001  -0.68033E-002  -0.56656E-002  -0.15470E-002  -0.10123E-014  -0.21611E-014
     629  -0.47675E-001  -0.93402E-002  -0.82149E-002  -0.16537E-002   0.27607E-003   0.69188E-003
     630  -0.51611E-001  -0.11877E-001  -0.10764E-001  -0.17604E-002   0.69995E-003   0.96819E-003
     631  -0.45752E-001  -0.31401E-002  -0.40907E-002   0.50326E-014   0.12716E-014  -0.12924E-002
     632  -0.43063E-001  -0.26621E-002  -0.38915E-002   0.37134E-014  -0.47053E-015  -0.71158E-003
     633  -0.40375E-001  -0.21840E-002  -0.36924E-002  -0.74799E-015  -0.23084E-014  -0.42488E-014
     634  -0.43063E-001  -0.26621E-002  -0.38915E-002  -0.41927E-014   0.22932E-015   0.71158E-003
     635  -0.45752E-001  -0.31401E-002  -0.40907E-002  -0.44950E-014   0.28628E-014   0.12924E-002
     636  -0.51611E-001  -0.11877E-001  -0.10764E-001   0.17604E-002   0.69995E-003  -0.96819E-003
     637  -0.47675E-001  -0.93402E-002  -0.82149E-002   0.16537E-002   0.27607E-003  -0.69188E-003
     638  -0.43738E-001  -0.68033E-002  -0.56656E-002   0.15470E-002  -0.82082E-015  -0.79076E-014
     639  -0.47675E-001  -0.93402E-002  -0.82149E-002   0.16537E-002  -0.27607E-003   0.69188E-003
     640  -0.51611E-001  -0.11877E-001  -0.10764E-001   0.17604E-002  -0.69995E-003   0.96819E-003
     641  -0.57470E-001  -0.20614E-001  -0.17438E-001   0.20410E-002   0.80771E-003  -0.64400E-003
     642  -0.52286E-001  -0.16018E-001  -0.12538E-001   0.20479E-002   0.46382E-003  -0.67218E-003
     643  -0.47102E-001  -0.11423E-001  -0.76389E-002   0.20548E-002   0.11586E-014  -0.85848E-014
     644  -0.52286E-001  -0.16018E-001  -0.12538E-001   0.20479E-002  -0.46382E-003   0.67218E-003
     645  -0.57470E-001  -0.20614E-001  -0.17438E-001   0.20410E-002  -0.80771E-003   0.64400E-003
     646  -0.76563E-002  -0.32557E-002  -0.21129E-002   0.34914E-015  -0.35263E-015  -0.15431E-003
     647  -0.75484E-002  -0.29794E-002  -0.19113E-002   0.26633E-015  -0.15299E-015  -0.31109E-003
     648  -0.74405E-002  -0.27032E-002  -0.17098E-002   0.50357E-015   0.24303E-015   0.57575E-015
     649  -0.75484E-002  -0.29794E-002  -0.19113E-002   0.71519E-015  -0.69118E-017   0.31109E-003
     650  -0.76563E-002  -0.32557E-002  -0.21129E-002   0.60669E-015  -0.45323E-015   0.15431E-003
     651  -0.31492E-002   0.53897E-002   0.36591E-002   0.12095E-003   0.23917E-003  -0.21732E-003
     652  -0.41828E-002   0.41670E-002   0.19021E-002   0.62216E-004   0.41394E-004  -0.31759E-003
     653  -0.52165E-002   0.29442E-002   0.14510E-003   0.34844E-005   0.30505E-015   0.69481E-015
     654  -0.41828E-002   0.41670E-002   0.19021E-002   0.62216E-004  -0.41394E-004   0.31759E-003
     655  -0.31492E-002   0.53897E-002   0.36591E-002   0.12095E-003  -0.23917E-003   0.21732E-003
     656  -0.54028E-002   0.10670E-002   0.77310E-003  -0.50525E-004   0.18369E-003  -0.18581E-003
     657  -0.58656E-002   0.59376E-003  -0.46170E-005  -0.83070E-004  -0.22090E-005  -0.31434E-003
     658  -0.63285E-002   0.12053E-003  -0.78233E-003  -0.11561E-003  -0.77456E-016   0.48477E-015
     659  -0.58656E-002   0.59376E-003  -0.46170E-005  -0.83070E-004   0.22090E-005   0.31434E-003
     660  -0.54028E-002   0.10670E-002   0.77310E-003  -0.50525E-004  -0.18369E-003   0.18581E-003
     661  -0.54028E-002   0.10670E-002   0.77310E-003   0.50525E-004  -0.18369E-003  -0.18581E-003
     662  -0.58656E-002   0.59376E-003  -0.46170E-005   0.83070E-004   0.22090E-005  -0.31434E-003
     663  -0.63285E-002   0.12053E-003  -0.78233E-003   0.11561E-003   0.37124E-015   0.12761E-014
     664  -0.58656E-002   0.59376E-003  -0.46170E-005   0.83070E-004  -0.22090E-005   0.31434E-003
     665  -0.54028E-002   0.10670E-002   0.77310E-003   0.50525E-004   0.18369E-003   0.18581E-003
     666  -0.31492E-002   0.53897E-002   0.36591E-002  -0.12095E-003  -0.23917E-003  -0.21732E-003
     667  -0.41828E-002   0.41670E-002   0.19021E-002  -0.62216E-004  -0.41394E-004  -0.31759E-003
     668  -0.52165E-002   0.29442E-002   0.14510E-003  -0.34844E-005  -0.20354E-015   0.16755E-014
     669  -0.41828E-002   0.41670E-002   0.19021E-002  -0.62216E-004   0.41394E-004   0.31759E-003
     670  -0.31492E-002   0.53897E-002   0.36591E-002  -0.12095E-003   0.23917E-003   0.21732E-003
     671  -0.64832E-003   0.36637E-004   0.58188E-003   0.14326E-015   0.36632E-016  -0.10171E-004
     672  -0.77128E-003  -0.15130E-003   0.62479E-004   0.94376E-016  -0.15795E-016   0.53112E-004
     673  -0.89425E-003  -0.33925E-003  -0.45692E-003  -0.89819E-017  -0.43317E-016  -0.17810E-015
     674  -0.77128E-003  -0.15130E-003   0.62479E-004   0.13424E-016  -0.66035E-017  -0.53112E-004
     675  -0.64832E-003   0.36637E-004   0.58188E-003   0.90273E-016   0.52033E-017   0.10171E-004
     676  -0.96403E-003   0.49279E-003   0.65735E-003  -0.10409E-003   0.49751E-004  -0.63529E-004
     677  -0.10586E-002   0.21303E-003   0.10626E-003  -0.80366E-004   0.42520E-004   0.66664E-004
     678  -0.11533E-002  -0.66724E-004  -0.44483E-003  -0.56645E-004   0.14489E-017  -0.16420E-015
     679  -0.10586E-002   0.21303E-003   0.10626E-003  -0.80366E-004  -0.42520E-004  -0.66664E-004
     680  -0.96403E-003   0.49279E-003   0.65735E-003  -0.10409E-003  -0.49751E-004   0.63529E-004
     681  -0.80617E-003   0.26471E-003   0.61962E-003   0.85447E-004   0.21048E-004  -0.36850E-004
     682  -0.91496E-003   0.30863E-004   0.84371E-004   0.79753E-004   0.19322E-004   0.59888E-004
     683  -0.10237E-002  -0.20299E-003  -0.45087E-003   0.74060E-004   0.85358E-016  -0.14465E-015
     684  -0.91496E-003   0.30863E-004   0.84371E-004   0.79753E-004  -0.19322E-004  -0.59888E-004
     685  -0.80617E-003   0.26471E-003   0.61962E-003   0.85447E-004  -0.21048E-004   0.36850E-004
     686  -0.80617E-003   0.26471E-003   0.61962E-003  -0.85447E-004  -0.21048E-004  -0.36850E-004
     687  -0.91496E-003   0.30863E-004   0.84371E-004  -0.79753E-004  -0.19322E-004   0.59888E-004
     688  -0.10237E-002  -0.20299E-003  -0.45087E-003  -0.74060E-004  -0.14412E-015  -0.25686E-015
     689  -0.91496E-003   0.30863E-004   0.84371E-004  -0.79753E-004   0.19322E-004  -0.59888E-004
     690  -0.80617E-003   0.26471E-003   0.61962E-003  -0.85447E-004   0.21048E-004   0.36850E-004
     691  -0.96403E-003   0.49279E-003   0.65735E-003   0.10409E-003  -0.49751E-004  -0.63529E-004
     692  -0.10586E-002   0.21303E-003   0.10626E-003   0.80366E-004  -0.42520E-004   0.66664E-004
     693  -0.11533E-002  -0.66724E-004  -0.44483E-003   0.56645E-004  -0.32330E-016  -0.28258E-015
     694  -0.10586E-002   0.21303E-003   0.10626E-003   0.80366E-004   0.42520E-004  -0.66664E-004
     695  -0.96403E-003   0.49279E-003   0.65735E-003   0.10409E-003   0.49751E-004   0.63529E-004
     696  -0.49125E-003  -0.78503E-003  -0.70190E-003   0.10332E-004  -0.44533E-004   0.14583E-004
     697  -0.31517E-003  -0.54576E-003  -0.34988E-003   0.51065E-005  -0.22697E-004  -0.20921E-004
     698  -0.13910E-003  -0.30649E-003   0.21444E-005  -0.11928E-006  -0.62944E-017  -0.35416E-016
     699  -0.31517E-003  -0.54576E-003  -0.34988E-003   0.51065E-005   0.22697E-004   0.20921E-004
     700  -0.49125E-003  -0.78503E-003  -0.70190E-003   0.10332E-004   0.44533E-004  -0.14583E-004
     701  -0.29645E-003  -0.33148E-003  -0.40672E-003  -0.45840E-004  -0.26238E-004   0.22333E-005
     702  -0.17909E-003  -0.19483E-003  -0.16607E-003  -0.41448E-004  -0.74372E-005  -0.18522E-004
     703  -0.61734E-004  -0.58173E-004   0.74568E-004  -0.37056E-004   0.24812E-017  -0.21515E-016
     704  -0.17909E-003  -0.19483E-003  -0.16607E-003  -0.41448E-004   0.74372E-005   0.18522E-004
     705  -0.29645E-003  -0.33148E-003  -0.40672E-003  -0.45840E-004   0.26238E-004  -0.22333E-005
     706  -0.10166E-003   0.12207E-003  -0.11153E-003   0.60165E-017   0.82446E-017  -0.10116E-004
     707  -0.43014E-004   0.15611E-003   0.17731E-004   0.41591E-017   0.11496E-016  -0.16124E-004
     708   0.15630E-004   0.19014E-003   0.14699E-003   0.67991E-017  -0.40319E-018  -0.22675E-017
     709  -0.43014E-004   0.15611E-003   0.17731E-004  -0.12216E-017  -0.10044E-016   0.16124E-004
     710  -0.10166E-003   0.12207E-003  -0.11153E-003  -0.13746E-016  -0.45335E-017   0.10116E-004
     711  -0.29645E-003  -0.33148E-003  -0.40672E-003   0.45840E-004   0.26238E-004   0.22333E-005
     712  -0.17909E-003  -0.19483E-003  -0.16607E-003   0.41448E-004   0.74372E-005  -0.18522E-004
     713  -0.61734E-004  -0.58173E-004   0.74568E-004   0.37056E-004  -0.30468E-017  -0.75310E-017
     714  -0.17909E-003  -0.19483E-003  -0.16607E-003   0.41448E-004  -0.74372E-005   0.18522E-004
     715  -0.29645E-003  -0.33148E-003  -0.40672E-003   0.45840E-004  -0.26238E-004  -0.22333E-005
     716  -0.49125E-003  -0.78503E-003  -0.70190E-003  -0.10332E-004   0.44533E-004   0.14583E-004
     717  -0.31517E-003  -0.54576E-003  -0.34988E-003  -0.51065E-005   0.22697E-004  -0.20921E-004
     718  -0.13910E-003  -0.30649E-003   0.21444E-005   0.11928E-006   0.59687E-017  -0.18138E-016
     719  -0.31517E-003  -0.54576E-003  -0.34988E-003  -0.51065E-005  -0.22697E-004   0.20921E-004
     720  -0.49125E-003  -0.78503E-003  -0.70190E-003  -0.10332E-004  -0.44533E-004  -0.14583E-004
     721   0.22746E-003   0.38601E-003   0.32793E-003   0.73951E-005   0.20490E-004   0.13163E-005
     722   0.12983E-003   0.27185E-003   0.17004E-003   0.47414E-005   0.85307E-005  -0.13596E-004
     723   0.32214E-004   0.15770E-003   0.12151E-004   0.20876E-005   0.18472E-017   0.63595E-017
     724   0.12983E-003   0.27185E-003   0.17004E-003   0.47414E-005  -0.85307E-005   0.13596E-004
     725   0.22746E-003   0.38601E-003   0.32793E-003   0.73951E-005  -0.20490E-004  -0.13163E-005
     726   0.95999E-004   0.14509E-003   0.16183E-003  -0.31040E-005   0.12236E-004   0.18840E-005
     727   0.35422E-004   0.85748E-004   0.66167E-004  -0.30771E-005   0.17947E-005  -0.12435E-004
     728  -0.25154E-004   0.26408E-004  -0.29493E-004  -0.30502E-005  -0.16410E-016  -0.14696E-017
     729   0.35422E-004   0.85748E-004   0.66167E-004  -0.30771E-005  -0.17947E-005   0.12435E-004
     730   0.95999E-004   0.14509E-003   0.16183E-003  -0.31040E-005  -0.12236E-004  -0.18840E-005
     731  -0.35458E-004  -0.95835E-004  -0.42714E-005  -0.21418E-016   0.32145E-018   0.24518E-005
     732  -0.58990E-004  -0.10036E-003  -0.37705E-004  -0.12852E-016  -0.54824E-017  -0.11274E-004
     733  -0.82522E-004  -0.10488E-003  -0.71138E-004  -0.57259E-018  -0.87803E-017  -0.50526E-017
     734  -0.58990E-004  -0.10036E-003  -0.37705E-004   0.20409E-017  -0.53117E-017   0.11274E-004
     735  -0.35458E-004  -0.95835E-004  -0.42714E-005   0.94190E-018  -0.43499E-017  -0.24518E-005
     736   0.95999E-004   0.14509E-003   0.16183E-003   0.31040E-005  -0.12236E-004   0.18840E-005
     737   0.35422E-004   0.85748E-004   0.66167E-004   0.30771E-005  -0.17947E-005  -0.12435E-004
     738  -0.25154E-004   0.26408E-004  -0.29493E-004   0.30502E-005   0.13916E-016   0.18972E-016
     739   0.35422E-004   0.85748E-004   0.66167E-004   0.30771E-005   0.17947E-005   0.12435E-004
     740   0.95999E-004   0.14509E-003   0.16183E-003   0.31040E-005   0.12236E-004  -0.18840E-005
     741   0.22746E-003   0.38601E-003   0.32793E-003  -0.73951E-005  -0.20490E-004   0.13163E-005
     742   0.12983E-003   0.27185E-003   0.17004E-003  -0.47414E-005  -0.85307E-005  -0.13596E-004
     743   0.32214E-004   0.15770E-003   0.12151E-004  -0.20876E-005   0.10726E-016   0.38750E-016
     744   0.12983E-003   0.27185E-003   0.17004E-003  -0.47414E-005   0.85307E-005   0.13596E-004
     745   0.22746E-003   0.38601E-003   0.32793E-003  -0.73951E-005   0.20490E-004  -0.13163E-005


