

    NODE   SXX         SYY         SZZ         SXY         SYZ         SZX  
       1  -0.99997E+002   0.39305E-003  -0.70334E-003   0.21602E-002  -0.32117E-005  -0.41695E-003
       2  -0.99997E+002   0.24338E-003  -0.93307E-003   0.19486E-002   0.12429E-005  -0.36954E-003
       3  -0.99997E+002   0.93715E-004  -0.11628E-002   0.17371E-002  -0.26581E-012  -0.42154E-012
       4  -0.99997E+002   0.24338E-003  -0.93307E-003   0.19486E-002  -0.12429E-005   0.36954E-003
       5  -0.99997E+002   0.39305E-003  -0.70334E-003   0.21602E-002   0.32117E-005   0.41695E-003
       6  -0.99998E+002   0.16596E-002  -0.30115E-003   0.30519E-002   0.72504E-004  -0.25946E-003
       7  -0.99998E+002   0.14711E-002  -0.50252E-003   0.27794E-002   0.58850E-004  -0.23795E-003
       8  -0.99998E+002   0.12826E-002  -0.70389E-003   0.25069E-002  -0.37188E-012  -0.47304E-012
       9  -0.99998E+002   0.14711E-002  -0.50252E-003   0.27794E-002  -0.58850E-004   0.23795E-003
      10  -0.99998E+002   0.16596E-002  -0.30115E-003   0.30519E-002  -0.72504E-004   0.25946E-003
      11  -0.10000E+003   0.36508E-002   0.10003E-003   0.35774E-002   0.17348E-003  -0.68704E-004
      12  -0.10000E+003   0.34519E-002   0.31722E-005   0.32856E-002   0.13822E-003  -0.68406E-004
      13  -0.10000E+003   0.32529E-002  -0.93689E-004   0.29938E-002  -0.52662E-012  -0.39759E-012
      14  -0.10000E+003   0.34519E-002   0.31722E-005   0.32856E-002  -0.13822E-003   0.68406E-004
      15  -0.10000E+003   0.36508E-002   0.10003E-003   0.35774E-002  -0.17348E-003   0.68704E-004
      16  -0.10000E+003   0.49236E-002   0.21569E-003   0.21104E-002   0.12424E-003   0.28425E-005
      17  -0.10000E+003   0.47903E-002   0.22543E-003   0.19390E-002   0.10411E-003   0.21642E-006
      18  -0.10000E+003   0.46569E-002   0.23517E-003   0.17675E-002  -0.52167E-012  -0.30561E-012
      19  -0.10000E+003   0.47903E-002   0.22543E-003   0.19390E-002  -0.10411E-003  -0.21642E-006
      20  -0.10000E+003   0.49236E-002   0.21569E-003   0.21104E-002  -0.12424E-003  -0.28425E-005
      21  -0.10000E+003   0.54716E-002   0.33235E-003  -0.49825E-012  -0.27481E-012   0.41117E-004
      22  -0.10000E+003   0.53755E-002   0.37254E-003  -0.41562E-012  -0.30999E-012   0.30890E-004
      23  -0.10000E+003   0.52795E-002   0.41273E-003  -0.76741E-013  -0.30348E-012  -0.10926E-012
      24  -0.10000E+003   0.53755E-002   0.37254E-003   0.95014E-013  -0.19506E-012  -0.30890E-004
      25  -0.10000E+003   0.54716E-002   0.33235E-003   0.10525E-013  -0.12831E-012  -0.41117E-004
      26  -0.10000E+003   0.49236E-002   0.21569E-003  -0.21104E-002  -0.12424E-003   0.28425E-005
      27  -0.10000E+003   0.47903E-002   0.22543E-003  -0.19390E-002  -0.10411E-003   0.21642E-006
      28  -0.10000E+003   0.46569E-002   0.23517E-003  -0.17675E-002  -0.46611E-013   0.25883E-012
      29  -0.10000E+003   0.47903E-002   0.22543E-003  -0.19390E-002   0.10411E-003  -0.21642E-006
      30  -0.10000E+003   0.49236E-002   0.21569E-003  -0.21104E-002   0.12424E-003  -0.28425E-005
      31  -0.10000E+003   0.36508E-002   0.10003E-003  -0.35774E-002  -0.17348E-003  -0.68704E-004
      32  -0.10000E+003   0.34519E-002   0.31722E-005  -0.32856E-002  -0.13822E-003  -0.68406E-004
      33  -0.10000E+003   0.32529E-002  -0.93689E-004  -0.29938E-002   0.46461E-013   0.59775E-012
      34  -0.10000E+003   0.34519E-002   0.31722E-005  -0.32856E-002   0.13822E-003   0.68406E-004
      35  -0.10000E+003   0.36508E-002   0.10003E-003  -0.35774E-002   0.17348E-003   0.68704E-004
      36  -0.99998E+002   0.16596E-002  -0.30115E-003  -0.30519E-002  -0.72504E-004  -0.25946E-003
      37  -0.99998E+002   0.14711E-002  -0.50252E-003  -0.27794E-002  -0.58850E-004  -0.23795E-003
      38  -0.99998E+002   0.12826E-002  -0.70389E-003  -0.25069E-002   0.50715E-013   0.72695E-012
      39  -0.99998E+002   0.14711E-002  -0.50252E-003  -0.27794E-002   0.58850E-004   0.23795E-003
      40  -0.99998E+002   0.16596E-002  -0.30115E-003  -0.30519E-002   0.72504E-004   0.25946E-003
      41  -0.99997E+002   0.39305E-003  -0.70334E-003  -0.21602E-002   0.32117E-005  -0.41695E-003
      42  -0.99997E+002   0.24338E-003  -0.93307E-003  -0.19486E-002  -0.12429E-005  -0.36954E-003
      43  -0.99997E+002   0.93715E-004  -0.11628E-002  -0.17371E-002   0.54200E-013   0.65400E-012
      44  -0.99997E+002   0.24338E-003  -0.93307E-003  -0.19486E-002   0.12429E-005   0.36954E-003
      45  -0.99997E+002   0.39305E-003  -0.70334E-003  -0.21602E-002  -0.32117E-005   0.41695E-003
      46  -0.99996E+002   0.11179E-003   0.71580E-003   0.11386E-002  -0.19271E-003  -0.67014E-003
      47  -0.99996E+002  -0.25821E-004   0.69318E-003   0.99696E-003  -0.16847E-003  -0.56724E-003
      48  -0.99995E+002  -0.16343E-003   0.67057E-003   0.85535E-003  -0.15956E-012  -0.70549E-012
      49  -0.99996E+002  -0.25821E-004   0.69318E-003   0.99696E-003   0.16847E-003   0.56724E-003
      50  -0.99996E+002   0.11179E-003   0.71580E-003   0.11386E-002   0.19271E-003   0.67014E-003
      51  -0.10000E+003  -0.52933E-002  -0.24031E-004  -0.47497E-003  -0.13692E-003  -0.17670E-003
      52  -0.10000E+003  -0.55074E-002  -0.13303E-003  -0.58897E-003  -0.12537E-003  -0.16956E-003
      53  -0.10000E+003  -0.57214E-002  -0.24204E-003  -0.70297E-003  -0.21550E-012  -0.32689E-012
      54  -0.10000E+003  -0.55074E-002  -0.13303E-003  -0.58897E-003   0.12537E-003   0.16956E-003
      55  -0.10000E+003  -0.52933E-002  -0.24031E-004  -0.47497E-003   0.13692E-003   0.17670E-003
      56  -0.10000E+003  -0.52933E-002  -0.24031E-004   0.47497E-003   0.13692E-003  -0.17670E-003
      57  -0.10000E+003  -0.55074E-002  -0.13303E-003   0.58897E-003   0.12537E-003  -0.16956E-003
      58  -0.10000E+003  -0.57214E-002  -0.24204E-003   0.70297E-003   0.61054E-013   0.69993E-012
      59  -0.10000E+003  -0.55074E-002  -0.13303E-003   0.58897E-003  -0.12537E-003   0.16956E-003
      60  -0.10000E+003  -0.52933E-002  -0.24031E-004   0.47497E-003  -0.13692E-003   0.17670E-003
      61  -0.99996E+002   0.11179E-003   0.71580E-003  -0.11386E-002   0.19271E-003  -0.67014E-003
      62  -0.99996E+002  -0.25821E-004   0.69318E-003  -0.99696E-003   0.16847E-003  -0.56724E-003
      63  -0.99995E+002  -0.16343E-003   0.67057E-003  -0.85535E-003   0.16604E-012   0.66768E-012
      64  -0.99996E+002  -0.25821E-004   0.69318E-003  -0.99696E-003  -0.16847E-003   0.56724E-003
      65  -0.99996E+002   0.11179E-003   0.71580E-003  -0.11386E-002  -0.19271E-003   0.67014E-003
      66  -0.99999E+002  -0.15058E-002   0.40375E-003   0.71980E-003  -0.18231E-003  -0.47537E-003
      67  -0.99999E+002  -0.16927E-002   0.32078E-003   0.57001E-003  -0.16770E-003  -0.41254E-003
      68  -0.99998E+002  -0.18795E-002   0.23782E-003   0.42021E-003  -0.14620E-012  -0.59904E-012
      69  -0.99999E+002  -0.16927E-002   0.32078E-003   0.57001E-003   0.16770E-003   0.41254E-003
      70  -0.99999E+002  -0.15058E-002   0.40375E-003   0.71980E-003   0.18231E-003   0.47537E-003
      71  -0.10000E+003  -0.94469E-002  -0.46468E-003  -0.82072E-003  -0.22729E-004  -0.33153E-004
      72  -0.10000E+003  -0.95860E-002  -0.49261E-003  -0.86733E-003  -0.27886E-004  -0.46942E-004
      73  -0.10000E+003  -0.97251E-002  -0.52053E-003  -0.91394E-003  -0.27123E-012  -0.15266E-012
      74  -0.10000E+003  -0.95860E-002  -0.49261E-003  -0.86733E-003   0.27886E-004   0.46942E-004
      75  -0.10000E+003  -0.94469E-002  -0.46468E-003  -0.82072E-003   0.22729E-004   0.33153E-004
      76  -0.10000E+003  -0.11431E-001  -0.78960E-003  -0.62350E-012  -0.10804E-012   0.64809E-005
      77  -0.10000E+003  -0.11517E-001  -0.77076E-003  -0.50619E-012  -0.13954E-012  -0.12601E-004
      78  -0.10000E+003  -0.11603E-001  -0.75192E-003  -0.15496E-012  -0.18079E-012   0.31299E-013
      79  -0.10000E+003  -0.11517E-001  -0.77076E-003   0.13726E-012  -0.17167E-012   0.12601E-004
      80  -0.10000E+003  -0.11431E-001  -0.78960E-003   0.19554E-012  -0.15278E-012  -0.64809E-005
      81  -0.10000E+003  -0.94469E-002  -0.46468E-003   0.82072E-003   0.22729E-004  -0.33153E-004
      82  -0.10000E+003  -0.95860E-002  -0.49261E-003   0.86733E-003   0.27886E-004  -0.46942E-004
      83  -0.10000E+003  -0.97251E-002  -0.52053E-003   0.91394E-003  -0.27337E-013   0.37349E-012
      84  -0.10000E+003  -0.95860E-002  -0.49261E-003   0.86733E-003  -0.27886E-004   0.46942E-004
      85  -0.10000E+003  -0.94469E-002  -0.46468E-003   0.82072E-003  -0.22729E-004   0.33153E-004
      86  -0.99999E+002  -0.15058E-002   0.40375E-003  -0.71980E-003   0.18231E-003  -0.47537E-003
      87  -0.99999E+002  -0.16927E-002   0.32078E-003  -0.57001E-003   0.16770E-003  -0.41254E-003
      88  -0.99998E+002  -0.18795E-002   0.23782E-003  -0.42021E-003   0.11277E-012   0.76365E-012
      89  -0.99999E+002  -0.16927E-002   0.32078E-003  -0.57001E-003  -0.16770E-003   0.41254E-003
      90  -0.99999E+002  -0.15058E-002   0.40375E-003  -0.71980E-003  -0.18231E-003   0.47537E-003
      91  -0.10002E+003  -0.35155E-002   0.42411E-002  -0.10580E-001  -0.67656E-003  -0.16124E-003
      92  -0.10001E+003  -0.34703E-002   0.51432E-002  -0.98759E-002  -0.57408E-003  -0.10150E-003
      93  -0.10001E+003  -0.34250E-002   0.60452E-002  -0.91720E-002  -0.72755E-014  -0.89144E-012
      94  -0.10001E+003  -0.34703E-002   0.51432E-002  -0.98759E-002   0.57408E-003   0.10150E-003
      95  -0.10002E+003  -0.35155E-002   0.42411E-002  -0.10580E-001   0.67656E-003   0.16124E-003
      96  -0.10001E+003  -0.12390E-001   0.27725E-002  -0.18567E-001  -0.89099E-003  -0.30914E-003
      97  -0.10001E+003  -0.12339E-001   0.31436E-002  -0.17548E-001  -0.73779E-003  -0.24113E-003
      98  -0.10001E+003  -0.12287E-001   0.35147E-002  -0.16528E-001   0.35004E-013  -0.81622E-012
      99  -0.10001E+003  -0.12339E-001   0.31436E-002  -0.17548E-001   0.73779E-003   0.24113E-003
     100  -0.10001E+003  -0.12390E-001   0.27725E-002  -0.18567E-001   0.89099E-003   0.30914E-003
     101  -0.10000E+003  -0.34255E-001  -0.37055E-003  -0.26673E-001  -0.74621E-003  -0.34045E-003
     102  -0.10000E+003  -0.34030E-001  -0.55474E-003  -0.25467E-001  -0.63984E-003  -0.28780E-003
     103  -0.10000E+003  -0.33806E-001  -0.73892E-003  -0.24261E-001   0.23144E-013  -0.61906E-012
     104  -0.10000E+003  -0.34030E-001  -0.55474E-003  -0.25467E-001   0.63984E-003   0.28780E-003
     105  -0.10000E+003  -0.34255E-001  -0.37055E-003  -0.26673E-001   0.74621E-003   0.34045E-003
     106  -0.99979E+002  -0.64894E-001  -0.33041E-002  -0.12983E-011   0.34711E-013  -0.11459E-003
     107  -0.99979E+002  -0.64122E-001  -0.33905E-002  -0.11253E-011  -0.13173E-013  -0.80282E-004
     108  -0.99979E+002  -0.63350E-001  -0.34769E-002  -0.54614E-012  -0.11641E-012  -0.21448E-012
     109  -0.99979E+002  -0.64122E-001  -0.33905E-002   0.60940E-013  -0.15825E-012   0.80282E-004
     110  -0.99979E+002  -0.64894E-001  -0.33041E-002   0.26177E-012  -0.14475E-012   0.11459E-003
     111  -0.10000E+003  -0.34255E-001  -0.37055E-003   0.26673E-001   0.74621E-003  -0.34045E-003
     112  -0.10000E+003  -0.34030E-001  -0.55474E-003   0.25467E-001   0.63984E-003  -0.28780E-003
     113  -0.10000E+003  -0.33806E-001  -0.73892E-003   0.24261E-001  -0.24274E-013   0.15422E-012
     114  -0.10000E+003  -0.34030E-001  -0.55474E-003   0.25467E-001  -0.63984E-003   0.28780E-003
     115  -0.10000E+003  -0.34255E-001  -0.37055E-003   0.26673E-001  -0.74621E-003   0.34045E-003
     116  -0.10001E+003  -0.12390E-001   0.27725E-002   0.18567E-001   0.89099E-003  -0.30914E-003
     117  -0.10001E+003  -0.12339E-001   0.31436E-002   0.17548E-001   0.73779E-003  -0.24113E-003
     118  -0.10001E+003  -0.12287E-001   0.35147E-002   0.16528E-001   0.12087E-012  -0.91196E-013
     119  -0.10001E+003  -0.12339E-001   0.31436E-002   0.17548E-001  -0.73779E-003   0.24113E-003
     120  -0.10001E+003  -0.12390E-001   0.27725E-002   0.18567E-001  -0.89099E-003   0.30914E-003
     121  -0.10002E+003  -0.35155E-002   0.42411E-002   0.10580E-001   0.67656E-003  -0.16124E-003
     122  -0.10001E+003  -0.34703E-002   0.51432E-002   0.98759E-002   0.57408E-003  -0.10150E-003
     123  -0.10001E+003  -0.34250E-002   0.60452E-002   0.91720E-002   0.23296E-012  -0.30279E-012
     124  -0.10001E+003  -0.34703E-002   0.51432E-002   0.98759E-002  -0.57408E-003   0.10150E-003
     125  -0.10002E+003  -0.35155E-002   0.42411E-002   0.10580E-001  -0.67656E-003   0.16124E-003
     126  -0.99987E+002  -0.56069E-001  -0.26746E-002  -0.19656E-001  -0.30630E-003  -0.16923E-003
     127  -0.99987E+002  -0.55488E-001  -0.28220E-002  -0.18911E-001  -0.27549E-003  -0.13756E-003
     128  -0.99987E+002  -0.54907E-001  -0.29695E-002  -0.18166E-001  -0.40958E-013  -0.47781E-012
     129  -0.99987E+002  -0.55488E-001  -0.28220E-002  -0.18911E-001   0.27549E-003   0.13756E-003
     130  -0.99987E+002  -0.56069E-001  -0.26746E-002  -0.19656E-001   0.30630E-003   0.16923E-003
     131  -0.99987E+002  -0.56069E-001  -0.26746E-002   0.19656E-001   0.30630E-003  -0.16923E-003
     132  -0.99987E+002  -0.55488E-001  -0.28220E-002   0.18911E-001   0.27549E-003  -0.13756E-003
     133  -0.99987E+002  -0.54907E-001  -0.29695E-002   0.18166E-001  -0.11961E-012   0.10879E-012
     134  -0.99987E+002  -0.55488E-001  -0.28220E-002   0.18911E-001  -0.27549E-003   0.13756E-003
     135  -0.99987E+002  -0.56069E-001  -0.26746E-002   0.19656E-001  -0.30630E-003   0.16923E-003
     136  -0.99914E+002  -0.14068E+000  -0.64389E-002  -0.71310E-001  -0.45848E-003  -0.64777E-003
     137  -0.99917E+002  -0.13597E+000  -0.67459E-002  -0.68125E-001  -0.38829E-003  -0.71158E-003
     138  -0.99919E+002  -0.13127E+000  -0.70529E-002  -0.64940E-001  -0.13304E-012  -0.97596E-012
     139  -0.99917E+002  -0.13597E+000  -0.67459E-002  -0.68125E-001   0.38829E-003   0.71158E-003
     140  -0.99914E+002  -0.14068E+000  -0.64389E-002  -0.71310E-001   0.45848E-003   0.64777E-003
     141  -0.99914E+002  -0.14068E+000  -0.64389E-002   0.71310E-001   0.45848E-003  -0.64777E-003
     142  -0.99917E+002  -0.13597E+000  -0.67459E-002   0.68125E-001   0.38829E-003  -0.71158E-003
     143  -0.99919E+002  -0.13127E+000  -0.70529E-002   0.64940E-001  -0.23450E-012  -0.55264E-012
     144  -0.99917E+002  -0.13597E+000  -0.67459E-002   0.68125E-001  -0.38829E-003   0.71158E-003
     145  -0.99914E+002  -0.14068E+000  -0.64389E-002   0.71310E-001  -0.45848E-003   0.64777E-003
     146  -0.10012E+003  -0.44703E-002   0.13435E-001  -0.50604E-001  -0.16848E-002   0.42020E-002
     147  -0.10012E+003  -0.34291E-002   0.15965E-001  -0.46605E-001  -0.12538E-002   0.38518E-002
     148  -0.10011E+003  -0.23878E-002   0.18494E-001  -0.42605E-001  -0.70258E-013  -0.56242E-012
     149  -0.10012E+003  -0.34291E-002   0.15965E-001  -0.46605E-001   0.12538E-002  -0.38518E-002
     150  -0.10012E+003  -0.44703E-002   0.13435E-001  -0.50604E-001   0.16848E-002  -0.42020E-002
     151  -0.10009E+003  -0.31684E-001   0.69804E-002  -0.81415E-001  -0.13906E-002   0.19729E-002
     152  -0.10008E+003  -0.30104E-001   0.81984E-002  -0.76265E-001  -0.11501E-002   0.18413E-002
     153  -0.10008E+003  -0.28523E-001   0.94163E-002  -0.71114E-001  -0.16284E-012  -0.83381E-012
     154  -0.10008E+003  -0.30104E-001   0.81984E-002  -0.76265E-001   0.11501E-002  -0.18413E-002
     155  -0.10009E+003  -0.31684E-001   0.69804E-002  -0.81415E-001   0.13906E-002  -0.19729E-002
     156  -0.10000E+003  -0.90843E-001  -0.23908E-002  -0.10870E+000  -0.99725E-003  -0.45994E-003
     157  -0.99999E+002  -0.87733E-001  -0.25884E-002  -0.10321E+000  -0.88328E-003  -0.43054E-003
     158  -0.99999E+002  -0.84623E-001  -0.27859E-002  -0.97725E-001  -0.18503E-012  -0.10513E-011
     159  -0.99999E+002  -0.87733E-001  -0.25884E-002  -0.10321E+000   0.88328E-003   0.43054E-003
     160  -0.10000E+003  -0.90843E-001  -0.23908E-002  -0.10870E+000   0.99725E-003   0.45994E-003
     161  -0.99882E+002  -0.15857E+000  -0.75706E-002  -0.17784E-011  -0.11185E-012  -0.63191E-003
     162  -0.99885E+002  -0.15326E+000  -0.78831E-002  -0.15613E-011  -0.15976E-012  -0.73129E-003
     163  -0.99888E+002  -0.14795E+000  -0.81956E-002  -0.89896E-012  -0.20558E-012  -0.74681E-012
     164  -0.99885E+002  -0.15326E+000  -0.78831E-002  -0.20498E-012  -0.14378E-012   0.73129E-003
     165  -0.99882E+002  -0.15857E+000  -0.75706E-002   0.43807E-013  -0.84078E-013   0.63191E-003
     166  -0.10000E+003  -0.90843E-001  -0.23908E-002   0.10870E+000   0.99725E-003  -0.45994E-003
     167  -0.99999E+002  -0.87733E-001  -0.25884E-002   0.10321E+000   0.88328E-003  -0.43054E-003
     168  -0.99999E+002  -0.84623E-001  -0.27859E-002   0.97725E-001  -0.93494E-013  -0.77730E-012
     169  -0.99999E+002  -0.87733E-001  -0.25884E-002   0.10321E+000  -0.88328E-003   0.43054E-003
     170  -0.10000E+003  -0.90843E-001  -0.23908E-002   0.10870E+000  -0.99725E-003   0.45994E-003
     171  -0.10009E+003  -0.31684E-001   0.69804E-002   0.81415E-001   0.13906E-002   0.19729E-002
     172  -0.10008E+003  -0.30104E-001   0.81984E-002   0.76265E-001   0.11501E-002   0.18413E-002
     173  -0.10008E+003  -0.28523E-001   0.94163E-002   0.71114E-001   0.22182E-013  -0.13330E-011
     174  -0.10008E+003  -0.30104E-001   0.81984E-002   0.76265E-001  -0.11501E-002  -0.18413E-002
     175  -0.10009E+003  -0.31684E-001   0.69804E-002   0.81415E-001  -0.13906E-002  -0.19729E-002
     176  -0.10012E+003  -0.44703E-002   0.13435E-001   0.50604E-001   0.16848E-002   0.42020E-002
     177  -0.10012E+003  -0.34291E-002   0.15965E-001   0.46605E-001   0.12538E-002   0.38518E-002
     178  -0.10011E+003  -0.23878E-002   0.18494E-001   0.42605E-001   0.22085E-013  -0.16776E-011
     179  -0.10012E+003  -0.34291E-002   0.15965E-001   0.46605E-001  -0.12538E-002  -0.38518E-002
     180  -0.10012E+003  -0.44703E-002   0.13435E-001   0.50604E-001  -0.16848E-002  -0.42020E-002
     181  -0.10026E+003  -0.60527E-001   0.54867E-002  -0.19741E+000   0.29143E-003   0.81450E-002
     182  -0.10026E+003  -0.54048E-001   0.77062E-002  -0.18370E+000   0.52252E-003   0.72612E-002
     183  -0.10026E+003  -0.47570E-001   0.99257E-002  -0.16999E+000  -0.30137E-012  -0.74049E-012
     184  -0.10026E+003  -0.54048E-001   0.77062E-002  -0.18370E+000  -0.52252E-003  -0.72612E-002
     185  -0.10026E+003  -0.60527E-001   0.54867E-002  -0.19741E+000  -0.29143E-003  -0.81450E-002
     186  -0.99642E+002  -0.19761E+000  -0.85602E-002  -0.15602E-011  -0.23334E-012  -0.30065E-002
     187  -0.99651E+002  -0.17899E+000  -0.78514E-002  -0.12587E-011  -0.23388E-012  -0.22334E-002
     188  -0.99661E+002  -0.16038E+000  -0.71426E-002  -0.82406E-012  -0.20766E-012  -0.81972E-012
     189  -0.99651E+002  -0.17899E+000  -0.78514E-002  -0.37099E-012  -0.14003E-012   0.22334E-002
     190  -0.99642E+002  -0.19761E+000  -0.85602E-002  -0.51160E-013  -0.99158E-013   0.30065E-002
     191  -0.10026E+003  -0.60527E-001   0.54867E-002   0.19741E+000  -0.29143E-003   0.81450E-002
     192  -0.10026E+003  -0.54048E-001   0.77062E-002   0.18370E+000  -0.52252E-003   0.72612E-002
     193  -0.10026E+003  -0.47570E-001   0.99257E-002   0.16999E+000   0.48841E-014  -0.16624E-011
     194  -0.10026E+003  -0.54048E-001   0.77062E-002   0.18370E+000   0.52252E-003  -0.72612E-002
     195  -0.10026E+003  -0.60527E-001   0.54867E-002   0.19741E+000   0.29143E-003  -0.81450E-002
     196  -0.10042E+003  -0.29430E-001   0.13137E-001  -0.13488E+000   0.19411E-002   0.16039E-001
     197  -0.10042E+003  -0.26066E-001   0.15944E-001  -0.12377E+000   0.15149E-002   0.13522E-001
     198  -0.10042E+003  -0.22701E-001   0.18751E-001  -0.11266E+000  -0.24067E-012  -0.54477E-012
     199  -0.10042E+003  -0.26066E-001   0.15944E-001  -0.12377E+000  -0.15149E-002  -0.13522E-001
     200  -0.10042E+003  -0.29430E-001   0.13137E-001  -0.13488E+000  -0.19411E-002  -0.16039E-001
     201  -0.99961E+002  -0.11697E+000  -0.16866E-002  -0.23812E+000   0.91533E-005  -0.65269E-003
     202  -0.99966E+002  -0.10486E+000  -0.96347E-003  -0.22417E+000   0.27041E-003  -0.78993E-004
     203  -0.99970E+002  -0.92747E-001  -0.24040E-003  -0.21021E+000  -0.28954E-012  -0.85292E-012
     204  -0.99966E+002  -0.10486E+000  -0.96347E-003  -0.22417E+000  -0.27041E-003   0.78993E-004
     205  -0.99961E+002  -0.11697E+000  -0.16866E-002  -0.23812E+000  -0.91533E-005   0.65269E-003
     206  -0.99729E+002  -0.16996E+000  -0.48846E-002  -0.15583E+000   0.10247E-002  -0.22813E-002
     207  -0.99737E+002  -0.15334E+000  -0.46233E-002  -0.14796E+000   0.76596E-003  -0.16960E-002
     208  -0.99746E+002  -0.13672E+000  -0.43621E-002  -0.14010E+000  -0.22131E-012  -0.71282E-012
     209  -0.99737E+002  -0.15334E+000  -0.46233E-002  -0.14796E+000  -0.76596E-003   0.16960E-002
     210  -0.99729E+002  -0.16996E+000  -0.48846E-002  -0.15583E+000  -0.10247E-002   0.22813E-002
     211  -0.99729E+002  -0.16996E+000  -0.48846E-002   0.15583E+000  -0.10247E-002  -0.22813E-002
     212  -0.99737E+002  -0.15334E+000  -0.46233E-002   0.14796E+000  -0.76596E-003  -0.16960E-002
     213  -0.99746E+002  -0.13672E+000  -0.43621E-002   0.14010E+000  -0.16995E-012  -0.99561E-012
     214  -0.99737E+002  -0.15334E+000  -0.46233E-002   0.14796E+000   0.76596E-003   0.16960E-002
     215  -0.99729E+002  -0.16996E+000  -0.48846E-002   0.15583E+000   0.10247E-002   0.22813E-002
     216  -0.99961E+002  -0.11697E+000  -0.16866E-002   0.23812E+000  -0.91533E-005  -0.65269E-003
     217  -0.99966E+002  -0.10486E+000  -0.96347E-003   0.22417E+000  -0.27041E-003  -0.78993E-004
     218  -0.99970E+002  -0.92747E-001  -0.24040E-003   0.21021E+000  -0.62996E-014  -0.11646E-011
     219  -0.99966E+002  -0.10486E+000  -0.96347E-003   0.22417E+000   0.27041E-003   0.78993E-004
     220  -0.99961E+002  -0.11697E+000  -0.16866E-002   0.23812E+000   0.91533E-005   0.65269E-003
     221  -0.10042E+003  -0.29430E-001   0.13137E-001   0.13488E+000  -0.19411E-002   0.16039E-001
     222  -0.10042E+003  -0.26066E-001   0.15944E-001   0.12377E+000  -0.15149E-002   0.13522E-001
     223  -0.10042E+003  -0.22701E-001   0.18751E-001   0.11266E+000  -0.12781E-012  -0.20034E-011
     224  -0.10042E+003  -0.26066E-001   0.15944E-001   0.12377E+000   0.15149E-002  -0.13522E-001
     225  -0.10042E+003  -0.29430E-001   0.13137E-001   0.13488E+000   0.19411E-002  -0.16039E-001
     226  -0.10082E+003   0.47184E-001  -0.52631E-002  -0.16708E+000   0.24410E-002   0.46186E-001
     227  -0.10086E+003   0.61175E-001   0.92548E-002  -0.14988E+000   0.42677E-002   0.41674E-001
     228  -0.10090E+003   0.75165E-001   0.23773E-001  -0.13267E+000  -0.25367E-012  -0.45705E-012
     229  -0.10086E+003   0.61175E-001   0.92548E-002  -0.14988E+000  -0.42677E-002  -0.41674E-001
     230  -0.10082E+003   0.47184E-001  -0.52631E-002  -0.16708E+000  -0.24410E-002  -0.46186E-001
     231  -0.10046E+003   0.79607E-001  -0.18826E-002  -0.20464E+000   0.10313E-001   0.31742E-001
     232  -0.10049E+003   0.98462E-001   0.11103E-001  -0.18421E+000   0.94308E-002   0.28461E-001
     233  -0.10053E+003   0.11732E+000   0.24090E-001  -0.16377E+000  -0.23038E-012  -0.48243E-012
     234  -0.10049E+003   0.98462E-001   0.11103E-001  -0.18421E+000  -0.94308E-002  -0.28461E-001
     235  -0.10046E+003   0.79607E-001  -0.18826E-002  -0.20464E+000  -0.10313E-001  -0.31742E-001
     236  -0.99846E+002   0.15854E+000  -0.34448E-002  -0.21279E+000   0.13029E-001   0.11915E-001
     237  -0.99878E+002   0.18789E+000   0.86345E-002  -0.19411E+000   0.11020E-001   0.10483E-001
     238  -0.99910E+002   0.21725E+000   0.20714E-001  -0.17543E+000  -0.20993E-012  -0.45256E-012
     239  -0.99878E+002   0.18789E+000   0.86345E-002  -0.19411E+000  -0.11020E-001  -0.10483E-001
     240  -0.99846E+002   0.15854E+000  -0.34448E-002  -0.21279E+000  -0.13029E-001  -0.11915E-001
     241  -0.99479E+002   0.30529E+000   0.16195E-001  -0.10705E+000   0.43580E-002   0.58301E-002
     242  -0.99509E+002   0.34047E+000   0.26482E-001  -0.98213E-001   0.43737E-002   0.49138E-002
     243  -0.99538E+002   0.37565E+000   0.36769E-001  -0.89377E-001  -0.17877E-012  -0.49412E-012
     244  -0.99509E+002   0.34047E+000   0.26482E-001  -0.98213E-001  -0.43737E-002  -0.49138E-002
     245  -0.99479E+002   0.30529E+000   0.16195E-001  -0.10705E+000  -0.43580E-002  -0.58301E-002
     246  -0.99354E+002   0.40555E+000   0.40777E-001  -0.15793E-011  -0.12932E-012   0.51272E-002
     247  -0.99383E+002   0.44091E+000   0.48647E-001  -0.12325E-011  -0.11867E-012   0.41096E-002
     248  -0.99412E+002   0.47627E+000   0.56517E-001  -0.81954E-012  -0.13880E-012  -0.94163E-012
     249  -0.99383E+002   0.44091E+000   0.48647E-001  -0.25481E-012  -0.15869E-012  -0.41096E-002
     250  -0.99354E+002   0.40555E+000   0.40777E-001   0.24379E-012  -0.14780E-012  -0.51272E-002
     251  -0.99479E+002   0.30529E+000   0.16195E-001   0.10705E+000  -0.43580E-002   0.58301E-002
     252  -0.99509E+002   0.34047E+000   0.26482E-001   0.98213E-001  -0.43737E-002   0.49138E-002
     253  -0.99538E+002   0.37565E+000   0.36769E-001   0.89377E-001  -0.80746E-013  -0.13300E-011
     254  -0.99509E+002   0.34047E+000   0.26482E-001   0.98213E-001   0.43737E-002  -0.49138E-002
     255  -0.99479E+002   0.30529E+000   0.16195E-001   0.10705E+000   0.43580E-002  -0.58301E-002
     256  -0.99846E+002   0.15854E+000  -0.34448E-002   0.21279E+000  -0.13029E-001   0.11915E-001
     257  -0.99878E+002   0.18789E+000   0.86345E-002   0.19411E+000  -0.11020E-001   0.10483E-001
     258  -0.99910E+002   0.21725E+000   0.20714E-001   0.17543E+000   0.41295E-013  -0.14514E-011
     259  -0.99878E+002   0.18789E+000   0.86345E-002   0.19411E+000   0.11020E-001  -0.10483E-001
     260  -0.99846E+002   0.15854E+000  -0.34448E-002   0.21279E+000   0.13029E-001  -0.11915E-001
     261  -0.10046E+003   0.79607E-001  -0.18826E-002   0.20464E+000  -0.10313E-001   0.31742E-001
     262  -0.10049E+003   0.98462E-001   0.11103E-001   0.18421E+000  -0.94308E-002   0.28461E-001
     263  -0.10053E+003   0.11732E+000   0.24090E-001   0.16377E+000   0.23799E-013  -0.18355E-011
     264  -0.10049E+003   0.98462E-001   0.11103E-001   0.18421E+000   0.94308E-002  -0.28461E-001
     265  -0.10046E+003   0.79607E-001  -0.18826E-002   0.20464E+000   0.10313E-001  -0.31742E-001
     266  -0.10082E+003   0.47184E-001  -0.52631E-002   0.16708E+000  -0.24410E-002   0.46186E-001
     267  -0.10086E+003   0.61175E-001   0.92548E-002   0.14988E+000  -0.42677E-002   0.41674E-001
     268  -0.10090E+003   0.75165E-001   0.23773E-001   0.13267E+000  -0.63658E-013  -0.21357E-011
     269  -0.10086E+003   0.61175E-001   0.92548E-002   0.14988E+000   0.42677E-002  -0.41674E-001
     270  -0.10082E+003   0.47184E-001  -0.52631E-002   0.16708E+000   0.24410E-002  -0.46186E-001
     271  -0.99815E+002   0.26893E+001   0.15495E+000   0.75959E+000   0.26080E-001   0.25659E-001
     272  -0.99884E+002   0.26918E+001   0.16127E+000   0.73341E+000   0.22363E-001   0.27619E-001
     273  -0.99954E+002   0.26943E+001   0.16760E+000   0.70724E+000  -0.42906E-013  -0.65279E-012
     274  -0.99884E+002   0.26918E+001   0.16127E+000   0.73341E+000  -0.22363E-001  -0.27619E-001
     275  -0.99815E+002   0.26893E+001   0.15495E+000   0.75959E+000  -0.26080E-001  -0.25659E-001
     276  -0.99815E+002   0.26893E+001   0.15495E+000  -0.75959E+000  -0.26080E-001   0.25659E-001
     277  -0.99884E+002   0.26918E+001   0.16127E+000  -0.73341E+000  -0.22363E-001   0.27619E-001
     278  -0.99954E+002   0.26943E+001   0.16760E+000  -0.70724E+000  -0.66355E-013  -0.13946E-011
     279  -0.99884E+002   0.26918E+001   0.16127E+000  -0.73341E+000   0.22363E-001  -0.27619E-001
     280  -0.99815E+002   0.26893E+001   0.15495E+000  -0.75959E+000   0.26080E-001  -0.25659E-001
     281  -0.10034E+003  -0.73346E-001  -0.22184E+000   0.30416E+000   0.59545E-001   0.93772E-001
     282  -0.10056E+003  -0.64240E-001  -0.26375E+000   0.29487E+000   0.46973E-001   0.77676E-001
     283  -0.10078E+003  -0.55133E-001  -0.30566E+000   0.28557E+000  -0.11269E-012  -0.96555E-014
     284  -0.10056E+003  -0.64240E-001  -0.26375E+000   0.29487E+000  -0.46973E-001  -0.77676E-001
     285  -0.10034E+003  -0.73346E-001  -0.22184E+000   0.30416E+000  -0.59545E-001  -0.93772E-001
     286  -0.99929E+002   0.36892E+000  -0.17268E+000   0.56389E+000   0.55647E-001   0.72296E-001
     287  -0.10012E+003   0.38679E+000  -0.18053E+000   0.53910E+000   0.47402E-001   0.64745E-001
     288  -0.10030E+003   0.40466E+000  -0.18838E+000   0.51430E+000  -0.92269E-013  -0.11426E-012
     289  -0.10012E+003   0.38679E+000  -0.18053E+000   0.53910E+000  -0.47402E-001  -0.64745E-001
     290  -0.99929E+002   0.36892E+000  -0.17268E+000   0.56389E+000  -0.55647E-001  -0.72296E-001
     291  -0.99539E+002   0.15632E+001   0.16214E-001   0.95618E+000   0.43555E-001   0.42004E-001
     292  -0.99660E+002   0.15794E+001   0.33081E-001   0.91693E+000   0.39427E-001   0.43161E-001
     293  -0.99781E+002   0.15957E+001   0.49949E-001   0.87767E+000  -0.76666E-013  -0.32970E-012
     294  -0.99660E+002   0.15794E+001   0.33081E-001   0.91693E+000  -0.39427E-001  -0.43161E-001
     295  -0.99539E+002   0.15632E+001   0.16214E-001   0.95618E+000  -0.43555E-001  -0.42004E-001
     296  -0.10007E+003   0.30632E+001   0.15396E+000  -0.19320E-011  -0.63250E-013   0.18130E-001
     297  -0.10012E+003   0.30625E+001   0.15908E+000  -0.15555E-011  -0.30546E-013   0.20729E-001
     298  -0.10017E+003   0.30617E+001   0.16420E+000  -0.94585E-012  -0.64841E-013  -0.11025E-011
     299  -0.10012E+003   0.30625E+001   0.15908E+000  -0.15753E-012  -0.10369E-012  -0.20729E-001
     300  -0.10007E+003   0.30632E+001   0.15396E+000   0.39760E-012  -0.75539E-013  -0.18130E-001
     301  -0.99539E+002   0.15632E+001   0.16214E-001  -0.95618E+000  -0.43555E-001   0.42004E-001
     302  -0.99660E+002   0.15794E+001   0.33081E-001  -0.91693E+000  -0.39427E-001   0.43161E-001
     303  -0.99781E+002   0.15957E+001   0.49949E-001  -0.87767E+000  -0.65182E-014  -0.15865E-011
     304  -0.99660E+002   0.15794E+001   0.33081E-001  -0.91693E+000   0.39427E-001  -0.43161E-001
     305  -0.99539E+002   0.15632E+001   0.16214E-001  -0.95618E+000   0.43555E-001  -0.42004E-001
     306  -0.99929E+002   0.36892E+000  -0.17268E+000  -0.56389E+000  -0.55647E-001   0.72296E-001
     307  -0.10012E+003   0.38679E+000  -0.18053E+000  -0.53910E+000  -0.47402E-001   0.64745E-001
     308  -0.10030E+003   0.40466E+000  -0.18838E+000  -0.51430E+000  -0.36440E-013  -0.20017E-011
     309  -0.10012E+003   0.38679E+000  -0.18053E+000  -0.53910E+000   0.47402E-001  -0.64745E-001
     310  -0.99929E+002   0.36892E+000  -0.17268E+000  -0.56389E+000   0.55647E-001  -0.72296E-001
     311  -0.10034E+003  -0.73346E-001  -0.22184E+000  -0.30416E+000  -0.59545E-001   0.93772E-001
     312  -0.10056E+003  -0.64240E-001  -0.26375E+000  -0.29487E+000  -0.46973E-001   0.77676E-001
     313  -0.10078E+003  -0.55133E-001  -0.30566E+000  -0.28557E+000  -0.67196E-013  -0.22798E-011
     314  -0.10056E+003  -0.64240E-001  -0.26375E+000  -0.29487E+000   0.46973E-001  -0.77676E-001
     315  -0.10034E+003  -0.73346E-001  -0.22184E+000  -0.30416E+000   0.59545E-001  -0.93772E-001
     316  -0.95535E+002   0.91284E+000  -0.76528E+000   0.21553E+001   0.83704E-001  -0.23689E+000
     317  -0.95899E+002   0.83047E+000  -0.10115E+001   0.19426E+001   0.72993E-001  -0.22486E+000
     318  -0.96264E+002   0.74811E+000  -0.12578E+001   0.17298E+001   0.83895E-013   0.35236E-013
     319  -0.95899E+002   0.83047E+000  -0.10115E+001   0.19426E+001  -0.72993E-001   0.22486E+000
     320  -0.95535E+002   0.91284E+000  -0.76528E+000   0.21553E+001  -0.83704E-001   0.23689E+000
     321  -0.96277E+002   0.23511E+001  -0.34784E+000   0.40929E+001   0.11294E+000  -0.11618E+000
     322  -0.96557E+002   0.22478E+001  -0.52247E+000   0.38240E+001   0.96438E-001  -0.12523E+000
     323  -0.96838E+002   0.21446E+001  -0.69710E+000   0.35551E+001   0.13247E-012  -0.95930E-013
     324  -0.96557E+002   0.22478E+001  -0.52247E+000   0.38240E+001  -0.96438E-001   0.12523E+000
     325  -0.96277E+002   0.23511E+001  -0.34784E+000   0.40929E+001  -0.11294E+000   0.11618E+000
     326  -0.99562E+002   0.54930E+001   0.87988E-001   0.57433E+001   0.10408E+000  -0.10841E-001
     327  -0.99636E+002   0.53563E+001   0.15353E-001   0.54576E+001   0.89807E-001  -0.32591E-001
     328  -0.99709E+002   0.52196E+001  -0.57282E-001   0.51719E+001   0.15714E-012  -0.49308E-012
     329  -0.99636E+002   0.53563E+001   0.15353E-001   0.54576E+001  -0.89807E-001   0.32591E-001
     330  -0.99562E+002   0.54930E+001   0.87988E-001   0.57433E+001  -0.10408E+000   0.10841E-001
     331  -0.10355E+003   0.86460E+001   0.32601E+000   0.38383E+001   0.32569E-001  -0.30442E-001
     332  -0.10344E+003   0.84576E+001   0.27368E+000   0.36670E+001   0.30662E-001  -0.41514E-001
     333  -0.10333E+003   0.82693E+001   0.22135E+000   0.34957E+001   0.12565E-012  -0.87193E-012
     334  -0.10344E+003   0.84576E+001   0.27368E+000   0.36670E+001  -0.30662E-001   0.41514E-001
     335  -0.10355E+003   0.86460E+001   0.32601E+000   0.38383E+001  -0.32569E-001   0.30442E-001
     336  -0.10500E+003   0.10095E+002   0.54565E+000  -0.22066E-011  -0.11106E-013  -0.34669E-001
     337  -0.10483E+003   0.98678E+001   0.48324E+000  -0.18106E-011   0.61518E-013  -0.43440E-001
     338  -0.10465E+003   0.96404E+001   0.42083E+000  -0.10663E-011   0.77962E-013  -0.10842E-011
     339  -0.10483E+003   0.98678E+001   0.48324E+000  -0.27123E-012   0.26107E-013   0.43440E-001
     340  -0.10500E+003   0.10095E+002   0.54565E+000   0.17553E-012   0.30434E-013   0.34669E-001
     341  -0.10355E+003   0.86460E+001   0.32601E+000  -0.38383E+001  -0.32569E-001  -0.30442E-001
     342  -0.10344E+003   0.84576E+001   0.27368E+000  -0.36670E+001  -0.30662E-001  -0.41514E-001
     343  -0.10333E+003   0.82693E+001   0.22135E+000  -0.34957E+001  -0.40595E-013  -0.12770E-011
     344  -0.10344E+003   0.84576E+001   0.27368E+000  -0.36670E+001   0.30662E-001   0.41514E-001
     345  -0.10355E+003   0.86460E+001   0.32601E+000  -0.38383E+001   0.32569E-001   0.30442E-001
     346  -0.99562E+002   0.54930E+001   0.87988E-001  -0.57433E+001  -0.10408E+000  -0.10841E-001
     347  -0.99636E+002   0.53563E+001   0.15353E-001  -0.54576E+001  -0.89807E-001  -0.32591E-001
     348  -0.99709E+002   0.52196E+001  -0.57282E-001  -0.51719E+001  -0.10201E-012  -0.15360E-011
     349  -0.99636E+002   0.53563E+001   0.15353E-001  -0.54576E+001   0.89807E-001   0.32591E-001
     350  -0.99562E+002   0.54930E+001   0.87988E-001  -0.57433E+001   0.10408E+000   0.10841E-001
     351  -0.96277E+002   0.23511E+001  -0.34784E+000  -0.40929E+001  -0.11294E+000  -0.11618E+000
     352  -0.96557E+002   0.22478E+001  -0.52247E+000  -0.38240E+001  -0.96438E-001  -0.12523E+000
     353  -0.96838E+002   0.21446E+001  -0.69710E+000  -0.35551E+001  -0.82868E-013  -0.19514E-011
     354  -0.96557E+002   0.22478E+001  -0.52247E+000  -0.38240E+001   0.96438E-001   0.12523E+000
     355  -0.96277E+002   0.23511E+001  -0.34784E+000  -0.40929E+001   0.11294E+000   0.11618E+000
     356  -0.95535E+002   0.91284E+000  -0.76528E+000  -0.21553E+001  -0.83704E-001  -0.23689E+000
     357  -0.95899E+002   0.83047E+000  -0.10115E+001  -0.19426E+001  -0.72993E-001  -0.22486E+000
     358  -0.96264E+002   0.74811E+000  -0.12578E+001  -0.17298E+001  -0.80755E-013  -0.22014E-011
     359  -0.95899E+002   0.83047E+000  -0.10115E+001  -0.19426E+001   0.72993E-001   0.22486E+000
     360  -0.95535E+002   0.91284E+000  -0.76528E+000  -0.21553E+001   0.83704E-001   0.23689E+000
     361  -0.77936E+002   0.67999E+000  -0.16905E+001   0.98174E+001   0.39359E-001  -0.11023E+001
     362  -0.77840E+002   0.53726E+000  -0.18707E+001   0.91826E+001   0.27731E-001  -0.93686E+000
     363  -0.77743E+002   0.39453E+000  -0.20509E+001   0.85478E+001   0.25341E-012   0.26845E-012
     364  -0.77840E+002   0.53726E+000  -0.18707E+001   0.91826E+001  -0.27731E-001   0.93686E+000
     365  -0.77936E+002   0.67999E+000  -0.16905E+001   0.98174E+001  -0.39359E-001   0.11023E+001
     366  -0.86222E+002   0.45268E+001  -0.95888E+000   0.12701E+002   0.12889E+000  -0.69841E+000
     367  -0.85975E+002   0.43118E+001  -0.98709E+000   0.11911E+002   0.76968E-001  -0.59024E+000
     368  -0.85727E+002   0.40968E+001  -0.10153E+001   0.11122E+002   0.36995E-012  -0.71304E-013
     369  -0.85975E+002   0.43118E+001  -0.98709E+000   0.11911E+002  -0.76968E-001   0.59024E+000
     370  -0.86222E+002   0.45268E+001  -0.95888E+000   0.12701E+002  -0.12889E+000   0.69841E+000
     371  -0.10179E+003   0.11514E+002   0.28728E+000   0.15031E+002   0.65238E-001  -0.20314E+000
     372  -0.10124E+003   0.11052E+002   0.45754E+000   0.14228E+002   0.29699E-001  -0.14649E+000
     373  -0.10069E+003   0.10589E+002   0.62780E+000   0.13425E+002   0.44668E-012  -0.64760E-012
     374  -0.10124E+003   0.11052E+002   0.45754E+000   0.14228E+002  -0.29699E-001   0.14649E+000
     375  -0.10179E+003   0.11514E+002   0.28728E+000   0.15031E+002  -0.65238E-001   0.20314E+000
     376  -0.12049E+003   0.17655E+002   0.53313E+000  -0.26041E-011   0.13792E-012   0.26730E-001
     377  -0.11968E+003   0.16870E+002   0.70659E+000  -0.22706E-011   0.22066E-012   0.55143E-001
     378  -0.11887E+003   0.16086E+002   0.88004E+000  -0.16110E-011   0.26052E-012  -0.11283E-011
     379  -0.11968E+003   0.16870E+002   0.70659E+000  -0.83022E-012   0.15298E-012  -0.55143E-001
     380  -0.12049E+003   0.17655E+002   0.53313E+000  -0.37614E-012   0.88322E-013  -0.26730E-001
     381  -0.10179E+003   0.11514E+002   0.28728E+000  -0.15031E+002  -0.65238E-001  -0.20314E+000
     382  -0.10124E+003   0.11052E+002   0.45754E+000  -0.14228E+002  -0.29699E-001  -0.14649E+000
     383  -0.10069E+003   0.10589E+002   0.62780E+000  -0.13425E+002  -0.32807E-012  -0.15026E-011
     384  -0.10124E+003   0.11052E+002   0.45754E+000  -0.14228E+002   0.29699E-001   0.14649E+000
     385  -0.10179E+003   0.11514E+002   0.28728E+000  -0.15031E+002   0.65238E-001   0.20314E+000
     386  -0.86222E+002   0.45268E+001  -0.95888E+000  -0.12701E+002  -0.12889E+000  -0.69841E+000
     387  -0.85975E+002   0.43118E+001  -0.98709E+000  -0.11911E+002  -0.76968E-001  -0.59024E+000
     388  -0.85727E+002   0.40968E+001  -0.10153E+001  -0.11122E+002  -0.26330E-012  -0.17880E-011
     389  -0.85975E+002   0.43118E+001  -0.98709E+000  -0.11911E+002   0.76968E-001   0.59024E+000
     390  -0.86222E+002   0.45268E+001  -0.95888E+000  -0.12701E+002   0.12889E+000   0.69841E+000
     391  -0.77936E+002   0.67999E+000  -0.16905E+001  -0.98174E+001  -0.39359E-001  -0.11023E+001
     392  -0.77840E+002   0.53726E+000  -0.18707E+001  -0.91826E+001  -0.27731E-001  -0.93686E+000
     393  -0.77743E+002   0.39453E+000  -0.20509E+001  -0.85478E+001  -0.16771E-012  -0.19920E-011
     394  -0.77840E+002   0.53726E+000  -0.18707E+001  -0.91826E+001   0.27731E-001   0.93686E+000
     395  -0.77936E+002   0.67999E+000  -0.16905E+001  -0.98174E+001   0.39359E-001   0.11023E+001
     396  -0.11478E+003   0.16155E+002   0.66746E+000   0.10199E+002  -0.69285E-001  -0.42505E-001
     397  -0.11403E+003   0.15444E+002   0.86256E+000   0.97607E+001  -0.50356E-001   0.28892E-002
     398  -0.11327E+003   0.14733E+002   0.10577E+001   0.93228E+001   0.36074E-012  -0.94220E-012
     399  -0.11403E+003   0.15444E+002   0.86256E+000   0.97607E+001   0.50356E-001  -0.28892E-002
     400  -0.11478E+003   0.16155E+002   0.66746E+000   0.10199E+002   0.69285E-001   0.42505E-001
     401  -0.11478E+003   0.16155E+002   0.66746E+000  -0.10199E+002   0.69285E-001  -0.42505E-001
     402  -0.11403E+003   0.15444E+002   0.86256E+000  -0.97607E+001   0.50356E-001   0.28892E-002
     403  -0.11327E+003   0.14733E+002   0.10577E+001  -0.93228E+001  -0.45421E-013  -0.13388E-011
     404  -0.11403E+003   0.15444E+002   0.86256E+000  -0.97607E+001  -0.50356E-001  -0.28892E-002
     405  -0.11478E+003   0.16155E+002   0.66746E+000  -0.10199E+002  -0.69285E-001   0.42505E-001
     406  -0.39504E+002  -0.81329E+000   0.13614E+001   0.11674E+002  -0.18874E+000  -0.12112E+001
     407  -0.38704E+002  -0.88819E+000   0.22211E+001   0.10753E+002  -0.35574E+000  -0.98328E+000
     408  -0.37904E+002  -0.96310E+000   0.30808E+001   0.98321E+001  -0.10427E-012   0.94191E-012
     409  -0.38704E+002  -0.88819E+000   0.22211E+001   0.10753E+002   0.35574E+000   0.98328E+000
     410  -0.39504E+002  -0.81329E+000   0.13614E+001   0.11674E+002   0.18874E+000   0.12112E+001
     411  -0.63735E+002  -0.14878E+001   0.82483E+000   0.22523E+002  -0.13597E+001  -0.30369E+000
     412  -0.63091E+002  -0.23145E+001   0.13709E+001   0.21436E+002  -0.10926E+001  -0.23935E+000
     413  -0.62447E+002  -0.31412E+001   0.19169E+001   0.20349E+002  -0.27407E-013   0.51459E-012
     414  -0.63091E+002  -0.23145E+001   0.13709E+001   0.21436E+002   0.10926E+001   0.23935E+000
     415  -0.63735E+002  -0.14878E+001   0.82483E+000   0.22523E+002   0.13597E+001   0.30369E+000
     416  -0.10919E+003   0.26783E+001   0.90652E+000   0.27800E+002  -0.13033E+001   0.95504E+000
     417  -0.10886E+003   0.83618E+000   0.80071E+000   0.26906E+002  -0.10069E+001   0.79021E+000
     418  -0.10853E+003  -0.10059E+001   0.69491E+000   0.26012E+002   0.23408E-012  -0.26581E-012
     419  -0.10886E+003   0.83618E+000   0.80071E+000   0.26906E+002   0.10069E+001  -0.79021E+000
     420  -0.10919E+003   0.26783E+001   0.90652E+000   0.27800E+002   0.13033E+001  -0.95504E+000
     421  -0.13714E+003   0.70410E+001   0.80358E+000   0.13994E+002   0.13616E+000   0.11181E+001
     422  -0.13691E+003   0.51103E+001   0.74598E+000   0.13679E+002   0.33814E-001   0.93819E+000
     423  -0.13668E+003   0.31797E+001   0.68838E+000   0.13365E+002   0.42162E-012  -0.84660E-012
     424  -0.13691E+003   0.51103E+001   0.74598E+000   0.13679E+002  -0.33814E-001  -0.93819E+000
     425  -0.13714E+003   0.70410E+001   0.80358E+000   0.13994E+002  -0.13616E+000  -0.11181E+001
     426  -0.14386E+003   0.65632E+001   0.82348E-001  -0.45637E-011   0.20126E-012   0.92998E+000
     427  -0.14358E+003   0.48075E+001   0.41117E+000  -0.40074E-011   0.31844E-012   0.80054E+000
     428  -0.14330E+003   0.30518E+001   0.73999E+000  -0.30794E-011   0.34634E-012  -0.13333E-011
     429  -0.14358E+003   0.48075E+001   0.41117E+000  -0.22760E-011   0.17425E-012  -0.80054E+000
     430  -0.14386E+003   0.65632E+001   0.82348E-001  -0.18433E-011   0.91399E-013  -0.92998E+000
     431  -0.13714E+003   0.70410E+001   0.80358E+000  -0.13994E+002  -0.13616E+000   0.11181E+001
     432  -0.13691E+003   0.51103E+001   0.74598E+000  -0.13679E+002  -0.33814E-001   0.93819E+000
     433  -0.13668E+003   0.31797E+001   0.68838E+000  -0.13365E+002  -0.69895E-013  -0.16746E-011
     434  -0.13691E+003   0.51103E+001   0.74598E+000  -0.13679E+002   0.33814E-001  -0.93819E+000
     435  -0.13714E+003   0.70410E+001   0.80358E+000  -0.13994E+002   0.13616E+000  -0.11181E+001
     436  -0.10919E+003   0.26783E+001   0.90652E+000  -0.27800E+002   0.13033E+001   0.95504E+000
     437  -0.10886E+003   0.83618E+000   0.80071E+000  -0.26906E+002   0.10069E+001   0.79021E+000
     438  -0.10853E+003  -0.10059E+001   0.69491E+000  -0.26012E+002  -0.56543E-012  -0.15815E-011
     439  -0.10886E+003   0.83618E+000   0.80071E+000  -0.26906E+002  -0.10069E+001  -0.79021E+000
     440  -0.10919E+003   0.26783E+001   0.90652E+000  -0.27800E+002  -0.13033E+001  -0.95504E+000
     441  -0.63735E+002  -0.14878E+001   0.82483E+000  -0.22523E+002   0.13597E+001  -0.30369E+000
     442  -0.63091E+002  -0.23145E+001   0.13709E+001  -0.21436E+002   0.10926E+001  -0.23935E+000
     443  -0.62447E+002  -0.31412E+001   0.19169E+001  -0.20349E+002  -0.47582E-012  -0.12683E-011
     444  -0.63091E+002  -0.23145E+001   0.13709E+001  -0.21436E+002  -0.10926E+001   0.23935E+000
     445  -0.63735E+002  -0.14878E+001   0.82483E+000  -0.22523E+002  -0.13597E+001   0.30369E+000
     446  -0.39504E+002  -0.81329E+000   0.13614E+001  -0.11674E+002   0.18874E+000  -0.12112E+001
     447  -0.38704E+002  -0.88819E+000   0.22211E+001  -0.10753E+002   0.35574E+000  -0.98328E+000
     448  -0.37904E+002  -0.96310E+000   0.30808E+001  -0.98321E+001  -0.22865E-012  -0.11307E-011
     449  -0.38704E+002  -0.88819E+000   0.22211E+001  -0.10753E+002  -0.35574E+000   0.98328E+000
     450  -0.39504E+002  -0.81329E+000   0.13614E+001  -0.11674E+002  -0.18874E+000   0.12112E+001
     451  -0.14540E+002  -0.86304E+000   0.50008E+001   0.72705E+001  -0.40927E+000  -0.81106E+000
     452  -0.13494E+002  -0.88721E+000   0.66987E+001   0.63104E+001  -0.71110E+000  -0.63445E+000
     453  -0.12448E+002  -0.91138E+000   0.83967E+001   0.53502E+001  -0.52747E-012   0.12807E-011
     454  -0.13494E+002  -0.88721E+000   0.66987E+001   0.63104E+001   0.71110E+000   0.63445E+000
     455  -0.14540E+002  -0.86304E+000   0.50008E+001   0.72705E+001   0.40927E+000   0.81106E+000
     456  -0.48250E+002  -0.78279E+001   0.32119E+001   0.26561E+002  -0.28439E+001   0.46357E+000
     457  -0.47713E+002  -0.92659E+001   0.40501E+001   0.25499E+002  -0.22245E+001   0.36780E+000
     458  -0.47176E+002  -0.10704E+002   0.48883E+001   0.24437E+002  -0.51947E-012   0.96434E-012
     459  -0.47713E+002  -0.92659E+001   0.40501E+001   0.25499E+002   0.22245E+001  -0.36780E+000
     460  -0.48250E+002  -0.78279E+001   0.32119E+001   0.26561E+002   0.28439E+001  -0.46357E+000
     461  -0.14928E+003  -0.15126E+002  -0.24202E+001   0.31474E+002  -0.14880E+001   0.14024E+001
     462  -0.15060E+003  -0.17869E+002  -0.36103E+001   0.31339E+002  -0.11808E+001   0.11187E+001
     463  -0.15193E+003  -0.20613E+002  -0.48004E+001   0.31205E+002  -0.15683E-012   0.52271E-012
     464  -0.15060E+003  -0.17869E+002  -0.36103E+001   0.31339E+002   0.11808E+001  -0.11187E+001
     465  -0.14928E+003  -0.15126E+002  -0.24202E+001   0.31474E+002   0.14880E+001  -0.14024E+001
     466  -0.17446E+003  -0.15334E+002  -0.18337E+001   0.14991E+002   0.57627E+000   0.69478E+000
     467  -0.17614E+003  -0.17581E+002  -0.26835E+001   0.15292E+002   0.32933E+000   0.57805E+000
     468  -0.17783E+003  -0.19828E+002  -0.35332E+001   0.15594E+002   0.11362E-012  -0.19260E-012
     469  -0.17614E+003  -0.17581E+002  -0.26835E+001   0.15292E+002  -0.32933E+000  -0.57805E+000
     470  -0.17446E+003  -0.15334E+002  -0.18337E+001   0.14991E+002  -0.57627E+000  -0.69478E+000
     471  -0.16597E+003  -0.15376E+002   0.67445E+000  -0.72231E-011   0.21919E-012   0.15503E+000
     472  -0.16735E+003  -0.17181E+002   0.74931E+000  -0.59588E-011   0.31353E-012   0.16301E+000
     473  -0.16872E+003  -0.18986E+002   0.82417E+000  -0.39813E-011   0.26092E-012  -0.13123E-011
     474  -0.16735E+003  -0.17181E+002   0.74931E+000  -0.27007E-011   0.39642E-013  -0.16301E+000
     475  -0.16597E+003  -0.15376E+002   0.67445E+000  -0.21343E-011  -0.34667E-013  -0.15503E+000
     476  -0.17446E+003  -0.15334E+002  -0.18337E+001  -0.14991E+002  -0.57627E+000   0.69478E+000
     477  -0.17614E+003  -0.17581E+002  -0.26835E+001  -0.15292E+002  -0.32933E+000   0.57805E+000
     478  -0.17783E+003  -0.19828E+002  -0.35332E+001  -0.15594E+002   0.48662E-013  -0.23690E-011
     479  -0.17614E+003  -0.17581E+002  -0.26835E+001  -0.15292E+002   0.32933E+000  -0.57805E+000
     480  -0.17446E+003  -0.15334E+002  -0.18337E+001  -0.14991E+002   0.57627E+000  -0.69478E+000
     481  -0.14928E+003  -0.15126E+002  -0.24202E+001  -0.31474E+002   0.14880E+001   0.14024E+001
     482  -0.15060E+003  -0.17869E+002  -0.36103E+001  -0.31339E+002   0.11808E+001   0.11187E+001
     483  -0.15193E+003  -0.20613E+002  -0.48004E+001  -0.31205E+002  -0.42536E-012  -0.24144E-011
     484  -0.15060E+003  -0.17869E+002  -0.36103E+001  -0.31339E+002  -0.11808E+001  -0.11187E+001
     485  -0.14928E+003  -0.15126E+002  -0.24202E+001  -0.31474E+002  -0.14880E+001  -0.14024E+001
     486  -0.48250E+002  -0.78279E+001   0.32119E+001  -0.26561E+002   0.28439E+001   0.46357E+000
     487  -0.47713E+002  -0.92659E+001   0.40501E+001  -0.25499E+002   0.22245E+001   0.36780E+000
     488  -0.47176E+002  -0.10704E+002   0.48883E+001  -0.24437E+002  -0.50260E-012  -0.88948E-012
     489  -0.47713E+002  -0.92659E+001   0.40501E+001  -0.25499E+002  -0.22245E+001  -0.36780E+000
     490  -0.48250E+002  -0.78279E+001   0.32119E+001  -0.26561E+002  -0.28439E+001  -0.46357E+000
     491  -0.14540E+002  -0.86304E+000   0.50008E+001  -0.72705E+001   0.40927E+000  -0.81106E+000
     492  -0.13494E+002  -0.88721E+000   0.66987E+001  -0.63104E+001   0.71110E+000  -0.63445E+000
     493  -0.12448E+002  -0.91138E+000   0.83967E+001  -0.53502E+001  -0.16454E-012  -0.45347E-012
     494  -0.13494E+002  -0.88721E+000   0.66987E+001  -0.63104E+001  -0.71110E+000   0.63445E+000
     495  -0.14540E+002  -0.86304E+000   0.50008E+001  -0.72705E+001  -0.40927E+000   0.81106E+000
     496  -0.19853E+003  -0.13674E+002  -0.15188E+001   0.81852E+001   0.36615E+000  -0.89341E+000
     497  -0.20000E+003  -0.14326E+002  -0.18269E+001   0.83808E+001   0.25176E+000  -0.71821E+000
     498  -0.20147E+003  -0.14979E+002  -0.21350E+001   0.85764E+001  -0.10004E-012   0.21290E-012
     499  -0.20000E+003  -0.14326E+002  -0.18269E+001   0.83808E+001  -0.25176E+000   0.71821E+000
     500  -0.19853E+003  -0.13674E+002  -0.15188E+001   0.81852E+001  -0.36615E+000   0.89341E+000
     501  -0.18995E+003  -0.15800E+002  -0.31369E+000  -0.79340E-011   0.16685E-012  -0.92346E+000
     502  -0.19118E+003  -0.16288E+002  -0.13353E+000  -0.63223E-011   0.17946E-012  -0.77036E+000
     503  -0.19241E+003  -0.16776E+002   0.46625E-001  -0.37220E-011   0.70387E-013  -0.13382E-011
     504  -0.19118E+003  -0.16288E+002  -0.13353E+000  -0.19068E-011  -0.54812E-013   0.77036E+000
     505  -0.18995E+003  -0.15800E+002  -0.31369E+000  -0.10797E-011  -0.58299E-013   0.92346E+000
     506  -0.19853E+003  -0.13674E+002  -0.15188E+001  -0.81852E+001  -0.36615E+000  -0.89341E+000
     507  -0.20000E+003  -0.14326E+002  -0.18269E+001  -0.83808E+001  -0.25176E+000  -0.71821E+000
     508  -0.20147E+003  -0.14979E+002  -0.21350E+001  -0.85764E+001   0.10985E-012  -0.32995E-011
     509  -0.20000E+003  -0.14326E+002  -0.18269E+001  -0.83808E+001   0.25176E+000   0.71821E+000
     510  -0.19853E+003  -0.13674E+002  -0.15188E+001  -0.81852E+001   0.36615E+000   0.89341E+000
     511  -0.20711E+003  -0.11547E+002  -0.27240E+001   0.10812E+002   0.39048E+000  -0.86336E+000
     512  -0.20882E+003  -0.12364E+002  -0.35203E+001   0.11075E+002   0.22271E+000  -0.66605E+000
     513  -0.21053E+003  -0.13181E+002  -0.43166E+001   0.11338E+002  -0.16679E-012   0.10489E-011
     514  -0.20882E+003  -0.12364E+002  -0.35203E+001   0.11075E+002  -0.22271E+000   0.66605E+000
     515  -0.20711E+003  -0.11547E+002  -0.27240E+001   0.10812E+002  -0.39048E+000   0.86336E+000
     516  -0.20711E+003  -0.11547E+002  -0.27240E+001  -0.10812E+002  -0.39048E+000  -0.86336E+000
     517  -0.20882E+003  -0.12364E+002  -0.35203E+001  -0.11075E+002  -0.22271E+000  -0.66605E+000
     518  -0.21053E+003  -0.13181E+002  -0.43166E+001  -0.11338E+002   0.45637E-013  -0.45456E-011
     519  -0.20882E+003  -0.12364E+002  -0.35203E+001  -0.11075E+002   0.22271E+000   0.66605E+000
     520  -0.20711E+003  -0.11547E+002  -0.27240E+001  -0.10812E+002   0.39048E+000   0.86336E+000
     521  -0.20010E+003  -0.57301E+000   0.53384E+000  -0.64446E+000  -0.58820E-001  -0.28722E+000
     522  -0.20000E+003  -0.37029E+000   0.85070E+000  -0.75132E+000  -0.35010E-001  -0.28213E+000
     523  -0.19990E+003  -0.16756E+000   0.11676E+001  -0.85818E+000  -0.22603E-014  -0.87569E-013
     524  -0.20000E+003  -0.37029E+000   0.85070E+000  -0.75132E+000   0.35010E-001   0.28213E+000
     525  -0.20010E+003  -0.57301E+000   0.53384E+000  -0.64446E+000   0.58820E-001   0.28722E+000
     526  -0.19752E+003   0.14792E+001   0.18440E+001  -0.16669E+001  -0.68107E-001  -0.44442E+000
     527  -0.19736E+003   0.17538E+001   0.22691E+001  -0.18183E+001  -0.35040E-001  -0.40137E+000
     528  -0.19720E+003   0.20285E+001   0.26941E+001  -0.19696E+001  -0.16830E-013   0.69089E-012
     529  -0.19736E+003   0.17538E+001   0.22691E+001  -0.18183E+001   0.35040E-001   0.40137E+000
     530  -0.19752E+003   0.14792E+001   0.18440E+001  -0.16669E+001   0.68107E-001   0.44442E+000
     531  -0.20268E+003  -0.26252E+001  -0.77636E+000  -0.76528E-011   0.72047E-013  -0.13002E+000
     532  -0.20264E+003  -0.24944E+001  -0.56766E+000  -0.62663E-011   0.74610E-013  -0.16289E+000
     533  -0.20261E+003  -0.23636E+001  -0.35896E+000  -0.39129E-011   0.26559E-013  -0.17042E-011
     534  -0.20264E+003  -0.24944E+001  -0.56766E+000  -0.20471E-011   0.41096E-014   0.16289E+000
     535  -0.20268E+003  -0.26252E+001  -0.77636E+000  -0.11481E-011   0.32276E-013   0.13002E+000
     536  -0.20010E+003  -0.57301E+000   0.53384E+000   0.64446E+000   0.58820E-001  -0.28722E+000
     537  -0.20000E+003  -0.37029E+000   0.85070E+000   0.75132E+000   0.35010E-001  -0.28213E+000
     538  -0.19990E+003  -0.16756E+000   0.11676E+001   0.85818E+000   0.57338E-013  -0.39291E-011
     539  -0.20000E+003  -0.37029E+000   0.85070E+000   0.75132E+000  -0.35010E-001   0.28213E+000
     540  -0.20010E+003  -0.57301E+000   0.53384E+000   0.64446E+000  -0.58820E-001   0.28722E+000
     541  -0.19752E+003   0.14792E+001   0.18440E+001   0.16669E+001   0.68107E-001  -0.44442E+000
     542  -0.19736E+003   0.17538E+001   0.22691E+001   0.18183E+001   0.35040E-001  -0.40137E+000
     543  -0.19720E+003   0.20285E+001   0.26941E+001   0.19696E+001   0.73868E-013  -0.53159E-011
     544  -0.19736E+003   0.17538E+001   0.22691E+001   0.18183E+001  -0.35040E-001   0.40137E+000
     545  -0.19752E+003   0.14792E+001   0.18440E+001   0.16669E+001  -0.68107E-001   0.44442E+000
     546  -0.19991E+003  -0.17148E+000  -0.44747E+000  -0.30619E+000  -0.64517E-001   0.29301E+000
     547  -0.19965E+003  -0.20156E+000  -0.39673E+000  -0.25471E+000  -0.53147E-001   0.22979E+000
     548  -0.19939E+003  -0.23164E+000  -0.34598E+000  -0.20322E+000   0.49473E-013   0.55038E-012
     549  -0.19965E+003  -0.20156E+000  -0.39673E+000  -0.25471E+000   0.53147E-001  -0.22979E+000
     550  -0.19991E+003  -0.17148E+000  -0.44747E+000  -0.30619E+000   0.64517E-001  -0.29301E+000
     551  -0.20024E+003   0.63289E+000  -0.10206E+000  -0.59800E+000  -0.49474E-001   0.20086E+000
     552  -0.20000E+003   0.59910E+000  -0.90461E-001  -0.56702E+000  -0.42084E-001   0.16810E+000
     553  -0.19976E+003   0.56531E+000  -0.78860E-001  -0.53603E+000   0.58485E-013  -0.30912E-012
     554  -0.20000E+003   0.59910E+000  -0.90461E-001  -0.56702E+000   0.42084E-001  -0.16810E+000
     555  -0.20024E+003   0.63289E+000  -0.10206E+000  -0.59800E+000   0.49474E-001  -0.20086E+000
     556  -0.20057E+003   0.14373E+001   0.24335E+000  -0.75314E-011   0.34975E-013   0.10871E+000
     557  -0.20035E+003   0.13998E+001   0.21580E+000  -0.62722E-011   0.47992E-013   0.10641E+000
     558  -0.20014E+003   0.13623E+001   0.18826E+000  -0.41578E-011   0.53034E-013  -0.20168E-011
     559  -0.20035E+003   0.13998E+001   0.21580E+000  -0.24882E-011   0.91873E-014  -0.10641E+000
     560  -0.20057E+003   0.14373E+001   0.24335E+000  -0.16737E-011  -0.26683E-013  -0.10871E+000
     561  -0.20024E+003   0.63289E+000  -0.10206E+000   0.59800E+000   0.49474E-001   0.20086E+000
     562  -0.20000E+003   0.59910E+000  -0.90461E-001   0.56702E+000   0.42084E-001   0.16810E+000
     563  -0.19976E+003   0.56531E+000  -0.78860E-001   0.53603E+000   0.55208E-013  -0.41039E-011
     564  -0.20000E+003   0.59910E+000  -0.90461E-001   0.56702E+000  -0.42084E-001  -0.16810E+000
     565  -0.20024E+003   0.63289E+000  -0.10206E+000   0.59800E+000  -0.49474E-001  -0.20086E+000
     566  -0.19991E+003  -0.17148E+000  -0.44747E+000   0.30619E+000   0.64517E-001   0.29301E+000
     567  -0.19965E+003  -0.20156E+000  -0.39673E+000   0.25471E+000   0.53147E-001   0.22979E+000
     568  -0.19939E+003  -0.23164E+000  -0.34598E+000   0.20322E+000   0.71845E-013  -0.53429E-011
     569  -0.19965E+003  -0.20156E+000  -0.39673E+000   0.25471E+000  -0.53147E-001  -0.22979E+000
     570  -0.19991E+003  -0.17148E+000  -0.44747E+000   0.30619E+000  -0.64517E-001  -0.29301E+000
     571  -0.19977E+003   0.57389E-002   0.93951E-003  -0.73655E-011   0.25494E-013   0.68657E-002
     572  -0.19979E+003  -0.19191E-001  -0.30168E-001  -0.61144E-011   0.14402E-013   0.96106E-002
     573  -0.19982E+003  -0.44121E-001  -0.61276E-001  -0.41044E-011   0.17814E-013  -0.22372E-011
     574  -0.19979E+003  -0.19191E-001  -0.30168E-001  -0.26003E-011  -0.21642E-013  -0.96106E-002
     575  -0.19977E+003   0.57389E-002   0.93951E-003  -0.18553E-011  -0.75603E-013  -0.68657E-002
     576  -0.20016E+003   0.95567E-001   0.38914E-003   0.24948E-001   0.28352E-001  -0.91967E-002
     577  -0.20021E+003   0.68980E-001  -0.81002E-001   0.31717E-001   0.20134E-001   0.94009E-002
     578  -0.20026E+003   0.42393E-001  -0.16239E+000   0.38485E-001   0.17434E-013   0.48811E-012
     579  -0.20021E+003   0.68980E-001  -0.81002E-001   0.31717E-001  -0.20134E-001  -0.94009E-002
     580  -0.20016E+003   0.95567E-001   0.38914E-003   0.24948E-001  -0.28352E-001   0.91967E-002
     581  -0.19996E+003   0.50653E-001   0.66433E-003   0.12326E+000   0.16350E-001  -0.11655E-002
     582  -0.20000E+003   0.24895E-001  -0.55585E-001   0.13340E+000   0.12673E-001   0.95057E-002
     583  -0.20004E+003  -0.86397E-003  -0.11183E+000   0.14354E+000   0.24140E-013  -0.44923E-012
     584  -0.20000E+003   0.24895E-001  -0.55585E-001   0.13340E+000  -0.12673E-001  -0.95057E-002
     585  -0.19996E+003   0.50653E-001   0.66433E-003   0.12326E+000  -0.16350E-001   0.11655E-002
     586  -0.19996E+003   0.50653E-001   0.66433E-003  -0.12326E+000  -0.16350E-001  -0.11655E-002
     587  -0.20000E+003   0.24895E-001  -0.55585E-001  -0.13340E+000  -0.12673E-001   0.95057E-002
     588  -0.20004E+003  -0.86397E-003  -0.11183E+000  -0.14354E+000   0.28359E-013  -0.42090E-011
     589  -0.20000E+003   0.24895E-001  -0.55585E-001  -0.13340E+000   0.12673E-001  -0.95057E-002
     590  -0.19996E+003   0.50653E-001   0.66433E-003  -0.12326E+000   0.16350E-001   0.11655E-002
     591  -0.20016E+003   0.95567E-001   0.38914E-003  -0.24948E-001  -0.28352E-001  -0.91967E-002
     592  -0.20021E+003   0.68980E-001  -0.81002E-001  -0.31717E-001  -0.20134E-001   0.94009E-002
     593  -0.20026E+003   0.42393E-001  -0.16239E+000  -0.38485E-001   0.51936E-013  -0.53302E-011
     594  -0.20021E+003   0.68980E-001  -0.81002E-001  -0.31717E-001   0.20134E-001  -0.94009E-002
     595  -0.20016E+003   0.95567E-001   0.38914E-003  -0.24948E-001   0.28352E-001   0.91967E-002
     596  -0.19998E+003  -0.20067E-001   0.12315E-001   0.50657E-001  -0.51755E-002  -0.17717E-001
     597  -0.20000E+003  -0.13736E-001   0.27911E-001   0.46711E-001  -0.29995E-002  -0.20686E-001
     598  -0.20001E+003  -0.74047E-002   0.43507E-001   0.42765E-001  -0.64342E-014   0.51870E-012
     599  -0.20000E+003  -0.13736E-001   0.27911E-001   0.46711E-001   0.29995E-002   0.20686E-001
     600  -0.19998E+003  -0.20067E-001   0.12315E-001   0.50657E-001   0.51755E-002   0.17717E-001
     601  -0.19998E+003  -0.46135E-001  -0.19452E-003   0.13275E-001   0.54476E-003  -0.15571E-001
     602  -0.20000E+003  -0.40420E-001   0.11391E-001   0.92457E-002   0.40283E-003  -0.17353E-001
     603  -0.20002E+003  -0.34706E-001   0.22976E-001   0.52166E-002   0.20540E-013  -0.42769E-012
     604  -0.20000E+003  -0.40420E-001   0.11391E-001   0.92457E-002  -0.40283E-003   0.17353E-001
     605  -0.19998E+003  -0.46135E-001  -0.19452E-003   0.13275E-001  -0.54476E-003   0.15571E-001
     606  -0.19998E+003  -0.72202E-001  -0.12704E-001  -0.73017E-011   0.32536E-013  -0.13426E-001
     607  -0.20000E+003  -0.67105E-001  -0.51289E-002  -0.60156E-011   0.18657E-013  -0.14020E-001
     608  -0.20002E+003  -0.62007E-001   0.24461E-002  -0.40428E-011   0.41627E-013  -0.22605E-011
     609  -0.20000E+003  -0.67105E-001  -0.51289E-002  -0.26052E-011   0.34358E-013   0.14020E-001
     610  -0.19998E+003  -0.72202E-001  -0.12704E-001  -0.18542E-011  -0.97596E-014   0.13426E-001
     611  -0.19998E+003  -0.46135E-001  -0.19452E-003  -0.13275E-001  -0.54476E-003  -0.15571E-001
     612  -0.20000E+003  -0.40420E-001   0.11391E-001  -0.92457E-002  -0.40283E-003  -0.17353E-001
     613  -0.20002E+003  -0.34706E-001   0.22976E-001  -0.52166E-002   0.12185E-013  -0.42695E-011
     614  -0.20000E+003  -0.40420E-001   0.11391E-001  -0.92457E-002   0.40283E-003   0.17353E-001
     615  -0.19998E+003  -0.46135E-001  -0.19452E-003  -0.13275E-001   0.54476E-003   0.15571E-001
     616  -0.19998E+003  -0.20067E-001   0.12315E-001  -0.50657E-001   0.51755E-002  -0.17717E-001
     617  -0.20000E+003  -0.13736E-001   0.27911E-001  -0.46711E-001   0.29995E-002  -0.20686E-001
     618  -0.20001E+003  -0.74047E-002   0.43507E-001  -0.42765E-001  -0.11370E-013  -0.53921E-011
     619  -0.20000E+003  -0.13736E-001   0.27911E-001  -0.46711E-001  -0.29995E-002   0.20686E-001
     620  -0.19998E+003  -0.20067E-001   0.12315E-001  -0.50657E-001  -0.51755E-002   0.17717E-001
     621  -0.20000E+003  -0.66091E-002   0.15370E-002  -0.15420E-001   0.84534E-003  -0.22919E-003
     622  -0.19999E+003  -0.54291E-002   0.40166E-002  -0.15872E-001   0.34862E-003   0.93161E-003
     623  -0.19999E+003  -0.42492E-002   0.64963E-002  -0.16323E-001  -0.21170E-013   0.47140E-012
     624  -0.19999E+003  -0.54291E-002   0.40166E-002  -0.15872E-001  -0.34862E-003  -0.93161E-003
     625  -0.20000E+003  -0.66091E-002   0.15370E-002  -0.15420E-001  -0.84534E-003   0.22919E-003
     626  -0.20000E+003  -0.31116E-002   0.19646E-002  -0.31094E-002  -0.12844E-002  -0.91233E-004
     627  -0.20000E+003  -0.15620E-002   0.42563E-002  -0.34742E-002  -0.89260E-003   0.74480E-003
     628  -0.20000E+003  -0.12486E-004   0.65480E-002  -0.38389E-002   0.52857E-014  -0.39859E-012
     629  -0.20000E+003  -0.15620E-002   0.42563E-002  -0.34742E-002   0.89260E-003  -0.74480E-003
     630  -0.20000E+003  -0.31116E-002   0.19646E-002  -0.31094E-002   0.12844E-002   0.91233E-004
     631  -0.20001E+003   0.38594E-003   0.23923E-002  -0.71616E-011   0.20192E-013   0.46722E-004
     632  -0.20001E+003   0.23051E-002   0.44960E-002  -0.58898E-011   0.14490E-013   0.55800E-003
     633  -0.20000E+003   0.42242E-002   0.65997E-002  -0.39350E-011   0.46540E-013  -0.21183E-011
     634  -0.20001E+003   0.23051E-002   0.44960E-002  -0.25259E-011   0.50529E-013  -0.55800E-003
     635  -0.20001E+003   0.38594E-003   0.23923E-002  -0.17999E-011   0.16768E-013  -0.46722E-004
     636  -0.20000E+003  -0.31116E-002   0.19646E-002   0.31094E-002   0.12844E-002  -0.91233E-004
     637  -0.20000E+003  -0.15620E-002   0.42563E-002   0.34742E-002   0.89260E-003   0.74480E-003
     638  -0.20000E+003  -0.12486E-004   0.65480E-002   0.38389E-002   0.30872E-013  -0.40565E-011
     639  -0.20000E+003  -0.15620E-002   0.42563E-002   0.34742E-002  -0.89260E-003  -0.74480E-003
     640  -0.20000E+003  -0.31116E-002   0.19646E-002   0.31094E-002  -0.12844E-002   0.91233E-004
     641  -0.20000E+003  -0.66091E-002   0.15370E-002   0.15420E-001  -0.84534E-003  -0.22919E-003
     642  -0.19999E+003  -0.54291E-002   0.40166E-002   0.15872E-001  -0.34862E-003   0.93161E-003
     643  -0.19999E+003  -0.42492E-002   0.64963E-002   0.16323E-001   0.40641E-015  -0.51451E-011
     644  -0.19999E+003  -0.54291E-002   0.40166E-002   0.15872E-001   0.34862E-003  -0.93161E-003
     645  -0.20000E+003  -0.66091E-002   0.15370E-002   0.15420E-001   0.84534E-003   0.22919E-003
     646  -0.20000E+003   0.48499E-002  -0.25443E-003  -0.71254E-011   0.10175E-013   0.16904E-002
     647  -0.20000E+003   0.43897E-002  -0.97928E-003  -0.59336E-011  -0.24506E-014   0.12884E-002
     648  -0.20000E+003   0.39295E-002  -0.17041E-002  -0.40269E-011  -0.80977E-015  -0.19787E-011
     649  -0.20000E+003   0.43897E-002  -0.97928E-003  -0.25885E-011  -0.15732E-013  -0.12884E-002
     650  -0.20000E+003   0.48499E-002  -0.25443E-003  -0.18651E-011  -0.44920E-013  -0.16904E-002
     651  -0.20000E+003   0.48249E-002  -0.55481E-003   0.11468E-002  -0.45595E-003   0.22360E-002
     652  -0.20000E+003   0.44039E-002  -0.13902E-002   0.15611E-002  -0.25611E-003   0.15530E-002
     653  -0.20000E+003   0.39829E-002  -0.22256E-002   0.19754E-002   0.83467E-014   0.42629E-012
     654  -0.20000E+003   0.44039E-002  -0.13902E-002   0.15611E-002   0.25611E-003  -0.15530E-002
     655  -0.20000E+003   0.48249E-002  -0.55481E-003   0.11468E-002   0.45595E-003  -0.22360E-002
     656  -0.20000E+003   0.48374E-002  -0.40462E-003  -0.23161E-002   0.26127E-003   0.19632E-002
     657  -0.20000E+003   0.43968E-002  -0.11847E-002  -0.19668E-002   0.15394E-003   0.14207E-002
     658  -0.20000E+003   0.39562E-002  -0.19649E-002  -0.16176E-002  -0.44015E-014  -0.39474E-012
     659  -0.20000E+003   0.43968E-002  -0.11847E-002  -0.19668E-002  -0.15394E-003  -0.14207E-002
     660  -0.20000E+003   0.48374E-002  -0.40462E-003  -0.23161E-002  -0.26127E-003  -0.19632E-002
     661  -0.20000E+003   0.48374E-002  -0.40462E-003   0.23161E-002  -0.26127E-003   0.19632E-002
     662  -0.20000E+003   0.43968E-002  -0.11847E-002   0.19668E-002  -0.15394E-003   0.14207E-002
     663  -0.20000E+003   0.39562E-002  -0.19649E-002   0.16176E-002   0.19784E-013  -0.37971E-011
     664  -0.20000E+003   0.43968E-002  -0.11847E-002   0.19668E-002   0.15394E-003  -0.14207E-002
     665  -0.20000E+003   0.48374E-002  -0.40462E-003   0.23161E-002   0.26127E-003  -0.19632E-002
     666  -0.20000E+003   0.48249E-002  -0.55481E-003  -0.11468E-002   0.45595E-003   0.22360E-002
     667  -0.20000E+003   0.44039E-002  -0.13902E-002  -0.15611E-002   0.25611E-003   0.15530E-002
     668  -0.20000E+003   0.39829E-002  -0.22256E-002  -0.19754E-002   0.24038E-013  -0.48526E-011
     669  -0.20000E+003   0.44039E-002  -0.13902E-002  -0.15611E-002  -0.25611E-003  -0.15530E-002
     670  -0.20000E+003   0.48249E-002  -0.55481E-003  -0.11468E-002  -0.45595E-003  -0.22360E-002
     671  -0.20000E+003  -0.23056E-003   0.16940E-003  -0.70592E-011  -0.53091E-013  -0.36569E-003
     672  -0.20000E+003  -0.40364E-003  -0.38837E-004  -0.58411E-011  -0.40305E-013  -0.19418E-003
     673  -0.20000E+003  -0.57672E-003  -0.24708E-003  -0.39116E-011   0.29898E-014  -0.19051E-011
     674  -0.20000E+003  -0.40364E-003  -0.38837E-004  -0.25375E-011   0.67837E-013   0.19418E-003
     675  -0.20000E+003  -0.23056E-003   0.16940E-003  -0.18748E-011   0.10217E-012   0.36569E-003
     676  -0.20000E+003  -0.15787E-002  -0.53842E-003  -0.13829E-003   0.24071E-003  -0.39627E-003
     677  -0.20000E+003  -0.16757E-002  -0.81187E-003  -0.16404E-003   0.15277E-003  -0.15815E-003
     678  -0.20000E+003  -0.17727E-002  -0.10853E-002  -0.18978E-003  -0.87746E-013   0.43699E-012
     679  -0.20000E+003  -0.16757E-002  -0.81187E-003  -0.16404E-003  -0.15277E-003   0.15815E-003
     680  -0.20000E+003  -0.15787E-002  -0.53842E-003  -0.13829E-003  -0.24071E-003   0.39627E-003
     681  -0.20000E+003  -0.90461E-003  -0.18451E-003   0.81888E-003  -0.31054E-005  -0.38098E-003
     682  -0.20000E+003  -0.10397E-002  -0.42535E-003   0.79903E-003   0.13890E-004  -0.17616E-003
     683  -0.20000E+003  -0.11747E-002  -0.66619E-003   0.77918E-003  -0.52802E-013  -0.39107E-012
     684  -0.20000E+003  -0.10397E-002  -0.42535E-003   0.79903E-003  -0.13890E-004   0.17616E-003
     685  -0.20000E+003  -0.90461E-003  -0.18451E-003   0.81888E-003   0.31054E-005   0.38098E-003
     686  -0.20000E+003  -0.90461E-003  -0.18451E-003  -0.81888E-003   0.31054E-005  -0.38098E-003
     687  -0.20000E+003  -0.10397E-002  -0.42535E-003  -0.79903E-003  -0.13890E-004  -0.17616E-003
     688  -0.20000E+003  -0.11747E-002  -0.66619E-003  -0.77918E-003   0.24057E-013  -0.36811E-011
     689  -0.20000E+003  -0.10397E-002  -0.42535E-003  -0.79903E-003   0.13890E-004   0.17616E-003
     690  -0.20000E+003  -0.90461E-003  -0.18451E-003  -0.81888E-003  -0.31054E-005   0.38098E-003
     691  -0.20000E+003  -0.15787E-002  -0.53842E-003   0.13829E-003  -0.24071E-003  -0.39627E-003
     692  -0.20000E+003  -0.16757E-002  -0.81187E-003   0.16404E-003  -0.15277E-003  -0.15815E-003
     693  -0.20000E+003  -0.17727E-002  -0.10853E-002   0.18978E-003   0.24276E-013  -0.47710E-011
     694  -0.20000E+003  -0.16757E-002  -0.81187E-003   0.16404E-003   0.15277E-003   0.15815E-003
     695  -0.20000E+003  -0.15787E-002  -0.53842E-003   0.13829E-003   0.24071E-003   0.39627E-003
     696  -0.20000E+003   0.59226E-003   0.32520E-003   0.22537E-003  -0.89975E-004  -0.76666E-004
     697  -0.20000E+003   0.62563E-003   0.43514E-003   0.20256E-003  -0.57455E-004  -0.12905E-003
     698  -0.20000E+003   0.65901E-003   0.54508E-003   0.17976E-003   0.43632E-012   0.78684E-012
     699  -0.20000E+003   0.62563E-003   0.43514E-003   0.20256E-003   0.57455E-004   0.12905E-003
     700  -0.20000E+003   0.59226E-003   0.32520E-003   0.22537E-003   0.89975E-004   0.76666E-004
     701  -0.20000E+003   0.12994E-003   0.11353E-003  -0.37370E-004  -0.12474E-005  -0.58549E-004
     702  -0.20000E+003   0.17679E-003   0.22302E-003  -0.54971E-004  -0.67009E-005  -0.10844E-003
     703  -0.20000E+003   0.22364E-003   0.33252E-003  -0.72572E-004   0.32803E-012  -0.32543E-012
     704  -0.20000E+003   0.17679E-003   0.22302E-003  -0.54971E-004   0.67009E-005   0.10844E-003
     705  -0.20000E+003   0.12994E-003   0.11353E-003  -0.37370E-004   0.12474E-005   0.58549E-004
     706  -0.20000E+003  -0.33237E-003  -0.98145E-004  -0.62920E-011   0.82580E-012  -0.40432E-004
     707  -0.20000E+003  -0.27206E-003   0.10906E-004  -0.57096E-011   0.61543E-012  -0.87842E-004
     708  -0.20000E+003  -0.21174E-003   0.11996E-003  -0.43568E-011   0.18832E-013  -0.21761E-011
     709  -0.20000E+003  -0.27206E-003   0.10906E-004  -0.23572E-011  -0.60501E-012   0.87842E-004
     710  -0.20000E+003  -0.33237E-003  -0.98145E-004  -0.11279E-011  -0.84263E-012   0.40432E-004
     711  -0.20000E+003   0.12994E-003   0.11353E-003   0.37370E-004   0.12474E-005  -0.58549E-004
     712  -0.20000E+003   0.17679E-003   0.22302E-003   0.54971E-004   0.67009E-005  -0.10844E-003
     713  -0.20000E+003   0.22364E-003   0.33252E-003   0.72572E-004  -0.29437E-012  -0.36572E-011
     714  -0.20000E+003   0.17679E-003   0.22302E-003   0.54971E-004  -0.67009E-005   0.10844E-003
     715  -0.20000E+003   0.12994E-003   0.11353E-003   0.37370E-004  -0.12474E-005   0.58549E-004
     716  -0.20000E+003   0.59226E-003   0.32520E-003  -0.22537E-003   0.89975E-004  -0.76666E-004
     717  -0.20000E+003   0.62563E-003   0.43514E-003  -0.20256E-003   0.57455E-004  -0.12905E-003
     718  -0.20000E+003   0.65901E-003   0.54508E-003  -0.17976E-003  -0.40667E-012  -0.44000E-011
     719  -0.20000E+003   0.62563E-003   0.43514E-003  -0.20256E-003  -0.57455E-004   0.12905E-003
     720  -0.20000E+003   0.59226E-003   0.32520E-003  -0.22537E-003  -0.89975E-004   0.76666E-004
     721  -0.20000E+003  -0.42291E-003  -0.15771E-003  -0.22350E-003   0.46281E-004  -0.39481E-004
     722  -0.20000E+003  -0.40577E-003  -0.14479E-003  -0.21865E-003   0.28329E-004   0.32617E-004
     723  -0.20000E+003  -0.38863E-003  -0.13188E-003  -0.21379E-003   0.10907E-011   0.11529E-011
     724  -0.20000E+003  -0.40577E-003  -0.14479E-003  -0.21865E-003  -0.28329E-004  -0.32617E-004
     725  -0.20000E+003  -0.42291E-003  -0.15771E-003  -0.22350E-003  -0.46281E-004   0.39481E-004
     726  -0.20000E+003  -0.15646E-003  -0.51005E-004   0.26596E-004  -0.49076E-005  -0.38917E-004
     727  -0.20000E+003  -0.14374E-003  -0.48890E-004   0.24167E-004  -0.76437E-006   0.34253E-004
     728  -0.20000E+003  -0.13102E-003  -0.46775E-004   0.21737E-004   0.76825E-012  -0.25576E-012
     729  -0.20000E+003  -0.14374E-003  -0.48890E-004   0.24167E-004   0.76437E-006  -0.34253E-004
     730  -0.20000E+003  -0.15646E-003  -0.51005E-004   0.26596E-004   0.49076E-005   0.38917E-004
     731  -0.20000E+003   0.10998E-003   0.55700E-004  -0.56603E-011   0.17776E-011  -0.38354E-004
     732  -0.20000E+003   0.11829E-003   0.47015E-004  -0.57651E-011   0.13125E-011   0.35890E-004
     733  -0.20000E+003   0.12660E-003   0.38330E-004  -0.50316E-011   0.15042E-013  -0.24966E-011
     734  -0.20000E+003   0.11829E-003   0.47015E-004  -0.23070E-011  -0.13994E-011  -0.35890E-004
     735  -0.20000E+003   0.10998E-003   0.55700E-004  -0.42063E-012  -0.19816E-011   0.38354E-004
     736  -0.20000E+003  -0.15646E-003  -0.51005E-004  -0.26596E-004   0.49076E-005  -0.38917E-004
     737  -0.20000E+003  -0.14374E-003  -0.48890E-004  -0.24167E-004   0.76437E-006   0.34253E-004
     738  -0.20000E+003  -0.13102E-003  -0.46775E-004  -0.21737E-004  -0.63013E-012  -0.37050E-011
     739  -0.20000E+003  -0.14374E-003  -0.48890E-004  -0.24167E-004  -0.76437E-006  -0.34253E-004
     740  -0.20000E+003  -0.15646E-003  -0.51005E-004  -0.26596E-004  -0.49076E-005   0.38917E-004
     741  -0.20000E+003  -0.42291E-003  -0.15771E-003   0.22350E-003  -0.46281E-004  -0.39481E-004
     742  -0.20000E+003  -0.40577E-003  -0.14479E-003   0.21865E-003  -0.28329E-004   0.32617E-004
     743  -0.20000E+003  -0.38863E-003  -0.13188E-003   0.21379E-003  -0.84454E-012  -0.40813E-011
     744  -0.20000E+003  -0.40577E-003  -0.14479E-003   0.21865E-003   0.28329E-004  -0.32617E-004
     745  -0.20000E+003  -0.42291E-003  -0.15771E-003   0.22350E-003   0.46281E-004   0.39481E-004


